\ LP format - for model browsing. Use MPS format to capture full model detail.
\ Signature: 0x732da1d317d2caf4
Minimize multi-objectives
  OBJ0: Priority=0 Weight=0.9999 AbsTol=1e-06 RelTol=0
   vars_Pmax + 0 x_i_0_j_0 + 0 x_i_1_j_1 + 0 x_i_2_j_2 + 0 x_i_3_j_3
   + 0 x_i_4_j_4 + 0 x_i_5_j_5 + 0 x_i_6_j_6 + 0 x_i_7_j_7 + 0 x_i_8_j_8
   + 0 x_i_9_j_9 + 0 x_i_10_j_10 + 0 x_i_11_j_11 + 0 x_i_12_j_12
   + 0 z_i_0_j_0 + 0 z_i_1_j_1 + 0 z_i_2_j_2 + 0 z_i_3_j_3 + 0 z_i_4_j_4
   + 0 z_i_5_j_5 + 0 z_i_6_j_6 + 0 z_i_7_j_7 + 0 z_i_8_j_8 + 0 z_i_9_j_9
   + 0 z_i_10_j_10 + 0 z_i_11_j_11 + 0 z_i_12_j_12
  OBJ1: Priority=0 Weight=0.0001 AbsTol=1e-06 RelTol=0
   vars_Dmin
Subject To
 Rest1: - vars_Pmax + 1878.933592091046 x_i_0_j_1
   + 1149.824247004903 x_i_0_j_2 + 1078.922803684394 x_i_0_j_3
   + 1294.894410335427 x_i_0_j_4 + 3118.736205024734 x_i_0_j_5
   + 3140.353028284163 x_i_0_j_6 + 1492.161500019782 x_i_0_j_7
   + 1382.078081008275 x_i_0_j_8 + 1260.096293932291 x_i_0_j_9
   + 1149.824247004903 x_i_0_j_10 + 3118.736205024734 x_i_0_j_11
   + 1494.329617166452 x_i_0_j_12 + 1878.933592091046 x_i_1_j_0
   + 2867.231787022922 x_i_1_j_2 + 2244.839684271666 x_i_1_j_3
   + 1613.93755211818 x_i_1_j_4 + 1285.95932651421 x_i_1_j_5
   + 1262.145507438514 x_i_1_j_6 + 401.0964971286719 x_i_1_j_7
   + 3229.939366393921 x_i_1_j_8 + 768.366096317397 x_i_1_j_9
   + 2867.231787022922 x_i_1_j_10 + 1285.95932651421 x_i_1_j_11
   + 1211.518923405167 x_i_1_j_12 + 1149.824247004903 x_i_2_j_0
   + 2867.231787022922 x_i_2_j_1 + 706.1119022840971 x_i_2_j_3
   + 1379.994967329054 x_i_2_j_4 + 3996.45240122313 x_i_2_j_5
   + 4109.970096200519 x_i_2_j_6 + 2543.589252028111 x_i_2_j_7
   + 541.9751271160882 x_i_2_j_8 + 2181.2808433125 x_i_2_j_9
   + 3996.45240122313 x_i_2_j_11 + 1872.039190756571 x_i_2_j_12
   + 1078.922803684394 x_i_3_j_0 + 2244.839684271666 x_i_3_j_1
   + 706.1119022840971 x_i_3_j_2 + 682.9313315006949 x_i_3_j_4
   + 3321.574330162081 x_i_3_j_5 + 3459.501346250155 x_i_3_j_6
   + 1947.595026288256 x_i_3_j_7 + 1212.867327640019 x_i_3_j_8
   + 1481.922912874862 x_i_3_j_9 + 706.1119022840971 x_i_3_j_10
   + 3321.574330162081 x_i_3_j_11 + 1175.588367946025 x_i_3_j_12
   + 1294.894410335427 x_i_4_j_0 + 1613.93755211818 x_i_4_j_1
   + 1379.994967329054 x_i_4_j_2 + 682.9313315006949 x_i_4_j_3
   + 2638.683606361736 x_i_4_j_5 + 2795.063844289901 x_i_4_j_6
   + 1352.25680440781 x_i_4_j_7 + 1858.372701277657 x_i_4_j_8
   + 846.5487129795105 x_i_4_j_9 + 1379.994967329054 x_i_4_j_10
   + 2638.683606361736 x_i_4_j_11 + 492.9522719116046 x_i_4_j_12
   + 3118.736205024734 x_i_5_j_0 + 1285.95932651421 x_i_5_j_1
   + 3996.45240122313 x_i_5_j_2 + 3321.574330162081 x_i_5_j_3
   + 2638.683606361736 x_i_5_j_4 + 496.8791659008949 x_i_5_j_6
   + 1685.204955925625 x_i_5_j_7 + 4414.410686158696 x_i_5_j_8
   + 1889.535000753251 x_i_5_j_9 + 3996.45240122313 x_i_5_j_10
   + 2380.607223375 x_i_5_j_12 + 3140.353028284163 x_i_6_j_0
   + 1262.145507438514 x_i_6_j_1 + 4109.970096200519 x_i_6_j_2
   + 3459.501346250155 x_i_6_j_3 + 2795.063844289901 x_i_6_j_4
   + 496.8791659008949 x_i_6_j_5 + 1651.174617801069 x_i_6_j_7
   + 4487.933725279374 x_i_6_j_8 + 1983.873575082974 x_i_6_j_9
   + 4109.970096200519 x_i_6_j_10 + 496.8791659008949 x_i_6_j_11
   + 2329.642540860698 x_i_6_j_12 + 1492.161500019782 x_i_7_j_0
   + 401.0964971286719 x_i_7_j_1 + 2543.589252028111 x_i_7_j_2
   + 1947.595026288256 x_i_7_j_3 + 1352.25680440781 x_i_7_j_4
   + 1685.204955925625 x_i_7_j_5 + 1651.174617801069 x_i_7_j_6
   + 2856.4839375 x_i_7_j_8 + 538.4326574688254 x_i_7_j_9
   + 2543.589252028111 x_i_7_j_10 + 1685.204955925625 x_i_7_j_11
   + 1034.661003617642 x_i_7_j_12 + 1382.078081008275 x_i_8_j_0
   + 3229.939366393921 x_i_8_j_1 + 541.9751271160882 x_i_8_j_2
   + 1212.867327640019 x_i_8_j_3 + 1858.372701277657 x_i_8_j_4
   + 4414.410686158696 x_i_8_j_5 + 4487.933725279374 x_i_8_j_6
   + 2856.4839375 x_i_8_j_7 + 2529.042350995353 x_i_8_j_9
   + 541.9751271160882 x_i_8_j_10 + 4414.410686158696 x_i_8_j_11
   + 2346.823363376465 x_i_8_j_12 + 1260.096293932291 x_i_9_j_0
   + 768.366096317397 x_i_9_j_1 + 2181.2808433125 x_i_9_j_2
   + 1481.922912874862 x_i_9_j_3 + 846.5487129795105 x_i_9_j_4
   + 1889.535000753251 x_i_9_j_5 + 1983.873575082974 x_i_9_j_6
   + 538.4326574688254 x_i_9_j_7 + 2529.042350995353 x_i_9_j_8
   + 2181.2808433125 x_i_9_j_10 + 1889.535000753251 x_i_9_j_11
   + 497.4175842637306 x_i_9_j_12 + 1149.824247004903 x_i_10_j_0
   + 2867.231787022922 x_i_10_j_1 + 706.1119022840971 x_i_10_j_3
   + 1379.994967329054 x_i_10_j_4 + 3996.45240122313 x_i_10_j_5
   + 4109.970096200519 x_i_10_j_6 + 2543.589252028111 x_i_10_j_7
   + 541.9751271160882 x_i_10_j_8 + 2181.2808433125 x_i_10_j_9
   + 3996.45240122313 x_i_10_j_11 + 1872.039190756571 x_i_10_j_12
   + 3118.736205024734 x_i_11_j_0 + 1285.95932651421 x_i_11_j_1
   + 3996.45240122313 x_i_11_j_2 + 3321.574330162081 x_i_11_j_3
   + 2638.683606361736 x_i_11_j_4 + 496.8791659008949 x_i_11_j_6
   + 1685.204955925625 x_i_11_j_7 + 4414.410686158696 x_i_11_j_8
   + 1889.535000753251 x_i_11_j_9 + 3996.45240122313 x_i_11_j_10
   + 2380.607223375 x_i_11_j_12 + 1494.329617166452 x_i_12_j_0
   + 1211.518923405167 x_i_12_j_1 + 1872.039190756571 x_i_12_j_2
   + 1175.588367946025 x_i_12_j_3 + 492.9522719116046 x_i_12_j_4
   + 2380.607223375 x_i_12_j_5 + 2329.642540860698 x_i_12_j_6
   + 1034.661003617642 x_i_12_j_7 + 2346.823363376465 x_i_12_j_8
   + 497.4175842637306 x_i_12_j_9 + 1872.039190756571 x_i_12_j_10
   + 2380.607223375 x_i_12_j_11 <= 0
 Rest2_depot_0: x_i_0_j_1 + x_i_0_j_2 + x_i_0_j_3 + x_i_0_j_4 + x_i_0_j_5
   + x_i_0_j_6 + x_i_0_j_7 + x_i_0_j_8 + x_i_0_j_9 + x_i_0_j_10
   + x_i_0_j_11 + x_i_0_j_12 - x_i_1_j_0 - x_i_2_j_0 - x_i_3_j_0
   - x_i_4_j_0 - x_i_5_j_0 - x_i_6_j_0 - x_i_7_j_0 - x_i_8_j_0 - x_i_9_j_0
   - x_i_10_j_0 - x_i_11_j_0 - x_i_12_j_0 = 0
 Rest2_depot_1: - x_i_0_j_1 + x_i_1_j_0 + x_i_1_j_2 + x_i_1_j_3 + x_i_1_j_4
   + x_i_1_j_5 + x_i_1_j_6 + x_i_1_j_7 + x_i_1_j_8 + x_i_1_j_9 + x_i_1_j_10
   + x_i_1_j_11 + x_i_1_j_12 - x_i_2_j_1 - x_i_3_j_1 - x_i_4_j_1
   - x_i_5_j_1 - x_i_6_j_1 - x_i_7_j_1 - x_i_8_j_1 - x_i_9_j_1 - x_i_10_j_1
   - x_i_11_j_1 - x_i_12_j_1 = 0
 Rest2_depot_2: - x_i_0_j_2 - x_i_1_j_2 + x_i_2_j_0 + x_i_2_j_1 + x_i_2_j_3
   + x_i_2_j_4 + x_i_2_j_5 + x_i_2_j_6 + x_i_2_j_7 + x_i_2_j_8 + x_i_2_j_9
   + x_i_2_j_10 + x_i_2_j_11 + x_i_2_j_12 - x_i_3_j_2 - x_i_4_j_2
   - x_i_5_j_2 - x_i_6_j_2 - x_i_7_j_2 - x_i_8_j_2 - x_i_9_j_2 - x_i_10_j_2
   - x_i_11_j_2 - x_i_12_j_2 = 0
 Rest2_depot_3: - x_i_0_j_3 - x_i_1_j_3 - x_i_2_j_3 + x_i_3_j_0 + x_i_3_j_1
   + x_i_3_j_2 + x_i_3_j_4 + x_i_3_j_5 + x_i_3_j_6 + x_i_3_j_7 + x_i_3_j_8
   + x_i_3_j_9 + x_i_3_j_10 + x_i_3_j_11 + x_i_3_j_12 - x_i_4_j_3
   - x_i_5_j_3 - x_i_6_j_3 - x_i_7_j_3 - x_i_8_j_3 - x_i_9_j_3 - x_i_10_j_3
   - x_i_11_j_3 - x_i_12_j_3 = 0
 Rest2_depot_4: - x_i_0_j_4 - x_i_1_j_4 - x_i_2_j_4 - x_i_3_j_4 + x_i_4_j_0
   + x_i_4_j_1 + x_i_4_j_2 + x_i_4_j_3 + x_i_4_j_5 + x_i_4_j_6 + x_i_4_j_7
   + x_i_4_j_8 + x_i_4_j_9 + x_i_4_j_10 + x_i_4_j_11 + x_i_4_j_12
   - x_i_5_j_4 - x_i_6_j_4 - x_i_7_j_4 - x_i_8_j_4 - x_i_9_j_4 - x_i_10_j_4
   - x_i_11_j_4 - x_i_12_j_4 = 0
 Rest2_depot_5: - x_i_0_j_5 - x_i_1_j_5 - x_i_2_j_5 - x_i_3_j_5 - x_i_4_j_5
   + x_i_5_j_0 + x_i_5_j_1 + x_i_5_j_2 + x_i_5_j_3 + x_i_5_j_4 + x_i_5_j_6
   + x_i_5_j_7 + x_i_5_j_8 + x_i_5_j_9 + x_i_5_j_10 + x_i_5_j_11
   + x_i_5_j_12 - x_i_6_j_5 - x_i_7_j_5 - x_i_8_j_5 - x_i_9_j_5
   - x_i_10_j_5 - x_i_11_j_5 - x_i_12_j_5 = 0
 Rest4_link_lb_0: - x_i_1_j_0 - x_i_2_j_0 - x_i_3_j_0 - x_i_4_j_0
   - x_i_5_j_0 - x_i_6_j_0 - x_i_7_j_0 - x_i_8_j_0 - x_i_9_j_0 - x_i_10_j_0
   - x_i_11_j_0 - x_i_12_j_0 + d_0 <= 0
 Rest4_link_ub_0: x_i_1_j_0 + x_i_2_j_0 + x_i_3_j_0 + x_i_4_j_0 + x_i_5_j_0
   + x_i_6_j_0 + x_i_7_j_0 + x_i_8_j_0 + x_i_9_j_0 + x_i_10_j_0
   + x_i_11_j_0 + x_i_12_j_0 - 12 d_0 <= 0
 Rest4_link_lb_1: - x_i_0_j_1 - x_i_2_j_1 - x_i_3_j_1 - x_i_4_j_1
   - x_i_5_j_1 - x_i_6_j_1 - x_i_7_j_1 - x_i_8_j_1 - x_i_9_j_1 - x_i_10_j_1
   - x_i_11_j_1 - x_i_12_j_1 + d_1 <= 0
 Rest4_link_ub_1: x_i_0_j_1 + x_i_2_j_1 + x_i_3_j_1 + x_i_4_j_1 + x_i_5_j_1
   + x_i_6_j_1 + x_i_7_j_1 + x_i_8_j_1 + x_i_9_j_1 + x_i_10_j_1
   + x_i_11_j_1 + x_i_12_j_1 - 12 d_1 <= 0
 Rest4_link_lb_2: - x_i_0_j_2 - x_i_1_j_2 - x_i_3_j_2 - x_i_4_j_2
   - x_i_5_j_2 - x_i_6_j_2 - x_i_7_j_2 - x_i_8_j_2 - x_i_9_j_2 - x_i_10_j_2
   - x_i_11_j_2 - x_i_12_j_2 + d_2 <= 0
 Rest4_link_ub_2: x_i_0_j_2 + x_i_1_j_2 + x_i_3_j_2 + x_i_4_j_2 + x_i_5_j_2
   + x_i_6_j_2 + x_i_7_j_2 + x_i_8_j_2 + x_i_9_j_2 + x_i_10_j_2
   + x_i_11_j_2 + x_i_12_j_2 - 12 d_2 <= 0
 Rest4_link_lb_3: - x_i_0_j_3 - x_i_1_j_3 - x_i_2_j_3 - x_i_4_j_3
   - x_i_5_j_3 - x_i_6_j_3 - x_i_7_j_3 - x_i_8_j_3 - x_i_9_j_3 - x_i_10_j_3
   - x_i_11_j_3 - x_i_12_j_3 + d_3 <= 0
 Rest4_link_ub_3: x_i_0_j_3 + x_i_1_j_3 + x_i_2_j_3 + x_i_4_j_3 + x_i_5_j_3
   + x_i_6_j_3 + x_i_7_j_3 + x_i_8_j_3 + x_i_9_j_3 + x_i_10_j_3
   + x_i_11_j_3 + x_i_12_j_3 - 12 d_3 <= 0
 Rest4_link_lb_4: - x_i_0_j_4 - x_i_1_j_4 - x_i_2_j_4 - x_i_3_j_4
   - x_i_5_j_4 - x_i_6_j_4 - x_i_7_j_4 - x_i_8_j_4 - x_i_9_j_4 - x_i_10_j_4
   - x_i_11_j_4 - x_i_12_j_4 + d_4 <= 0
 Rest4_link_ub_4: x_i_0_j_4 + x_i_1_j_4 + x_i_2_j_4 + x_i_3_j_4 + x_i_5_j_4
   + x_i_6_j_4 + x_i_7_j_4 + x_i_8_j_4 + x_i_9_j_4 + x_i_10_j_4
   + x_i_11_j_4 + x_i_12_j_4 - 12 d_4 <= 0
 Rest4_link_lb_5: - x_i_0_j_5 - x_i_1_j_5 - x_i_2_j_5 - x_i_3_j_5
   - x_i_4_j_5 - x_i_6_j_5 - x_i_7_j_5 - x_i_8_j_5 - x_i_9_j_5 - x_i_10_j_5
   - x_i_11_j_5 - x_i_12_j_5 + d_5 <= 0
 Rest4_link_ub_5: x_i_0_j_5 + x_i_1_j_5 + x_i_2_j_5 + x_i_3_j_5 + x_i_4_j_5
   + x_i_6_j_5 + x_i_7_j_5 + x_i_8_j_5 + x_i_9_j_5 + x_i_10_j_5
   + x_i_11_j_5 + x_i_12_j_5 - 12 d_5 <= 0
 Rest5: x_i_0_j_6 + x_i_1_j_6 + x_i_2_j_6 + x_i_3_j_6 + x_i_4_j_6
   + x_i_5_j_6 + x_i_7_j_6 + x_i_8_j_6 + x_i_9_j_6 + x_i_10_j_6
   + x_i_11_j_6 + x_i_12_j_6 = 1
 Rest6: x_i_6_j_0 + x_i_6_j_1 + x_i_6_j_2 + x_i_6_j_3 + x_i_6_j_4
   + x_i_6_j_5 + x_i_6_j_7 + x_i_6_j_8 + x_i_6_j_9 + x_i_6_j_10
   + x_i_6_j_11 + x_i_6_j_12 = 1
 Rest7_j_7: x_i_0_j_7 + x_i_1_j_7 + x_i_2_j_7 + x_i_3_j_7 + x_i_4_j_7
   + x_i_5_j_7 + x_i_6_j_7 + x_i_8_j_7 + x_i_9_j_7 + x_i_10_j_7
   + x_i_11_j_7 + x_i_12_j_7 = 1
 Rest7_j_8: x_i_0_j_8 + x_i_1_j_8 + x_i_2_j_8 + x_i_3_j_8 + x_i_4_j_8
   + x_i_5_j_8 + x_i_6_j_8 + x_i_7_j_8 + x_i_9_j_8 + x_i_10_j_8
   + x_i_11_j_8 + x_i_12_j_8 = 1
 Rest7_j_9: x_i_0_j_9 + x_i_1_j_9 + x_i_2_j_9 + x_i_3_j_9 + x_i_4_j_9
   + x_i_5_j_9 + x_i_6_j_9 + x_i_7_j_9 + x_i_8_j_9 + x_i_10_j_9
   + x_i_11_j_9 + x_i_12_j_9 = 1
 Rest7_j_10: x_i_0_j_10 + x_i_1_j_10 + x_i_2_j_10 + x_i_3_j_10 + x_i_4_j_10
   + x_i_5_j_10 + x_i_6_j_10 + x_i_7_j_10 + x_i_8_j_10 + x_i_9_j_10
   + x_i_11_j_10 + x_i_12_j_10 = 1
 Rest7_j_11: x_i_0_j_11 + x_i_1_j_11 + x_i_2_j_11 + x_i_3_j_11 + x_i_4_j_11
   + x_i_5_j_11 + x_i_6_j_11 + x_i_7_j_11 + x_i_8_j_11 + x_i_9_j_11
   + x_i_10_j_11 + x_i_12_j_11 = 1
 Rest7_j_12: x_i_0_j_12 + x_i_1_j_12 + x_i_2_j_12 + x_i_3_j_12 + x_i_4_j_12
   + x_i_5_j_12 + x_i_6_j_12 + x_i_7_j_12 + x_i_8_j_12 + x_i_9_j_12
   + x_i_10_j_12 + x_i_11_j_12 = 1
 Rest8_j_7: x_i_7_j_0 + x_i_7_j_1 + x_i_7_j_2 + x_i_7_j_3 + x_i_7_j_4
   + x_i_7_j_5 + x_i_7_j_6 + x_i_7_j_8 + x_i_7_j_9 + x_i_7_j_10
   + x_i_7_j_11 + x_i_7_j_12 = 1
 Rest8_j_8: x_i_8_j_0 + x_i_8_j_1 + x_i_8_j_2 + x_i_8_j_3 + x_i_8_j_4
   + x_i_8_j_5 + x_i_8_j_6 + x_i_8_j_7 + x_i_8_j_9 + x_i_8_j_10
   + x_i_8_j_11 + x_i_8_j_12 = 1
 Rest8_j_9: x_i_9_j_0 + x_i_9_j_1 + x_i_9_j_2 + x_i_9_j_3 + x_i_9_j_4
   + x_i_9_j_5 + x_i_9_j_6 + x_i_9_j_7 + x_i_9_j_8 + x_i_9_j_10
   + x_i_9_j_11 + x_i_9_j_12 = 1
 Rest8_j_10: x_i_10_j_0 + x_i_10_j_1 + x_i_10_j_2 + x_i_10_j_3 + x_i_10_j_4
   + x_i_10_j_5 + x_i_10_j_6 + x_i_10_j_7 + x_i_10_j_8 + x_i_10_j_9
   + x_i_10_j_11 + x_i_10_j_12 = 1
 Rest8_j_11: x_i_11_j_0 + x_i_11_j_1 + x_i_11_j_2 + x_i_11_j_3 + x_i_11_j_4
   + x_i_11_j_5 + x_i_11_j_6 + x_i_11_j_7 + x_i_11_j_8 + x_i_11_j_9
   + x_i_11_j_10 + x_i_11_j_12 = 1
 Rest8_j_12: x_i_12_j_0 + x_i_12_j_1 + x_i_12_j_2 + x_i_12_j_3 + x_i_12_j_4
   + x_i_12_j_5 + x_i_12_j_6 + x_i_12_j_7 + x_i_12_j_8 + x_i_12_j_9
   + x_i_12_j_10 + x_i_12_j_11 = 1
 Rest9_i_7: - 497.3871666732606 x_i_7_j_0 - 133.698832376224 x_i_7_j_1
   - 847.8630840093704 x_i_7_j_2 - 649.1983420960854 x_i_7_j_3
   - 450.7522681359367 x_i_7_j_4 - 561.7349853085417 x_i_7_j_5
   - 550.3915392670228 x_i_7_j_6 - 952.1613125 x_i_7_j_8
   - 179.4775524896085 x_i_7_j_9 - 847.8630840093704 x_i_7_j_10
   - 561.7349853085417 x_i_7_j_11 - 344.8870012058807 x_i_7_j_12
   - z_i_0_j_7 - z_i_1_j_7 - z_i_2_j_7 - z_i_3_j_7 - z_i_4_j_7 - z_i_5_j_7
   - z_i_6_j_7 + z_i_7_j_0 + z_i_7_j_1 + z_i_7_j_2 + z_i_7_j_3 + z_i_7_j_4
   + z_i_7_j_5 + z_i_7_j_6 + z_i_7_j_8 + z_i_7_j_9 + z_i_7_j_10
   + z_i_7_j_11 + z_i_7_j_12 - z_i_8_j_7 - z_i_9_j_7 - z_i_10_j_7
   - z_i_11_j_7 - z_i_12_j_7 = 0
 Rest9_i_8: - 460.692693669425 x_i_8_j_0 - 1076.64645546464 x_i_8_j_1
   - 180.6583757053627 x_i_8_j_2 - 404.2891092133397 x_i_8_j_3
   - 619.4575670925523 x_i_8_j_4 - 1471.470228719565 x_i_8_j_5
   - 1495.977908426458 x_i_8_j_6 - 952.1613125 x_i_8_j_7
   - 843.014116998451 x_i_8_j_9 - 180.6583757053627 x_i_8_j_10
   - 1471.470228719565 x_i_8_j_11 - 782.2744544588218 x_i_8_j_12
   - z_i_0_j_8 - z_i_1_j_8 - z_i_2_j_8 - z_i_3_j_8 - z_i_4_j_8 - z_i_5_j_8
   - z_i_6_j_8 - z_i_7_j_8 + z_i_8_j_0 + z_i_8_j_1 + z_i_8_j_2 + z_i_8_j_3
   + z_i_8_j_4 + z_i_8_j_5 + z_i_8_j_6 + z_i_8_j_7 + z_i_8_j_9 + z_i_8_j_10
   + z_i_8_j_11 + z_i_8_j_12 - z_i_9_j_8 - z_i_10_j_8 - z_i_11_j_8
   - z_i_12_j_8 = 0
 Rest9_i_9: - 420.0320979774304 x_i_9_j_0 - 256.122032105799 x_i_9_j_1
   - 727.0936144375 x_i_9_j_2 - 493.9743042916205 x_i_9_j_3
   - 282.1829043265035 x_i_9_j_4 - 629.8450002510837 x_i_9_j_5
   - 661.2911916943247 x_i_9_j_6 - 179.4775524896085 x_i_9_j_7
   - 843.014116998451 x_i_9_j_8 - 727.0936144375 x_i_9_j_10
   - 629.8450002510837 x_i_9_j_11 - 165.8058614212435 x_i_9_j_12
   - z_i_0_j_9 - z_i_1_j_9 - z_i_2_j_9 - z_i_3_j_9 - z_i_4_j_9 - z_i_5_j_9
   - z_i_6_j_9 - z_i_7_j_9 - z_i_8_j_9 + z_i_9_j_0 + z_i_9_j_1 + z_i_9_j_2
   + z_i_9_j_3 + z_i_9_j_4 + z_i_9_j_5 + z_i_9_j_6 + z_i_9_j_7 + z_i_9_j_8
   + z_i_9_j_10 + z_i_9_j_11 + z_i_9_j_12 - z_i_10_j_9 - z_i_11_j_9
   - z_i_12_j_9 = 0
 Rest9_i_10: - 383.2747490016342 x_i_10_j_0 - 955.7439290076408 x_i_10_j_1
   - 1e-06 x_i_10_j_2 - 235.370634094699 x_i_10_j_3
   - 459.9983224430179 x_i_10_j_4 - 1332.15080040771 x_i_10_j_5
   - 1369.99003206684 x_i_10_j_6 - 847.8630840093704 x_i_10_j_7
   - 180.6583757053627 x_i_10_j_8 - 727.0936144375 x_i_10_j_9
   - 1332.15080040771 x_i_10_j_11 - 624.0130635855236 x_i_10_j_12
   - z_i_0_j_10 - z_i_1_j_10 - z_i_2_j_10 - z_i_3_j_10 - z_i_4_j_10
   - z_i_5_j_10 - z_i_6_j_10 - z_i_7_j_10 - z_i_8_j_10 - z_i_9_j_10
   + z_i_10_j_0 + z_i_10_j_1 + z_i_10_j_2 + z_i_10_j_3 + z_i_10_j_4
   + z_i_10_j_5 + z_i_10_j_6 + z_i_10_j_7 + z_i_10_j_8 + z_i_10_j_9
   + z_i_10_j_11 + z_i_10_j_12 - z_i_11_j_10 - z_i_12_j_10 = 0
 Rest9_i_11: - 1039.578735008245 x_i_11_j_0 - 428.6531088380699 x_i_11_j_1
   - 1332.15080040771 x_i_11_j_2 - 1107.19144338736 x_i_11_j_3
   - 879.5612021205787 x_i_11_j_4 - 1e-06 x_i_11_j_5
   - 165.6263886336316 x_i_11_j_6 - 561.7349853085417 x_i_11_j_7
   - 1471.470228719565 x_i_11_j_8 - 629.8450002510837 x_i_11_j_9
   - 1332.15080040771 x_i_11_j_10 - 793.5357411250001 x_i_11_j_12
   - z_i_0_j_11 - z_i_1_j_11 - z_i_2_j_11 - z_i_3_j_11 - z_i_4_j_11
   - z_i_5_j_11 - z_i_6_j_11 - z_i_7_j_11 - z_i_8_j_11 - z_i_9_j_11
   - z_i_10_j_11 + z_i_11_j_0 + z_i_11_j_1 + z_i_11_j_2 + z_i_11_j_3
   + z_i_11_j_4 + z_i_11_j_5 + z_i_11_j_6 + z_i_11_j_7 + z_i_11_j_8
   + z_i_11_j_9 + z_i_11_j_10 + z_i_11_j_12 - z_i_12_j_11 = 0
 Rest9_i_12: - 498.1098723888175 x_i_12_j_0 - 403.8396411350555 x_i_12_j_1
   - 624.0130635855236 x_i_12_j_2 - 391.8627893153417 x_i_12_j_3
   - 164.3174239705349 x_i_12_j_4 - 793.5357411250001 x_i_12_j_5
   - 776.5475136202328 x_i_12_j_6 - 344.8870012058807 x_i_12_j_7
   - 782.2744544588218 x_i_12_j_8 - 165.8058614212435 x_i_12_j_9
   - 624.0130635855236 x_i_12_j_10 - 793.5357411250001 x_i_12_j_11
   - z_i_0_j_12 - z_i_1_j_12 - z_i_2_j_12 - z_i_3_j_12 - z_i_4_j_12
   - z_i_5_j_12 - z_i_6_j_12 - z_i_7_j_12 - z_i_8_j_12 - z_i_9_j_12
   - z_i_10_j_12 - z_i_11_j_12 + z_i_12_j_0 + z_i_12_j_1 + z_i_12_j_2
   + z_i_12_j_3 + z_i_12_j_4 + z_i_12_j_5 + z_i_12_j_6 + z_i_12_j_7
   + z_i_12_j_8 + z_i_12_j_9 + z_i_12_j_10 + z_i_12_j_11 = 0
 Rest10_d_1_i_0: - 626.3111973636819 x_i_1_j_0 + z_i_1_j_0 = 0
 Rest10_d_2_i_0: - 383.2747490016342 x_i_2_j_0 + z_i_2_j_0 = 0
 Rest10_d_3_i_0: - 359.6409345614645 x_i_3_j_0 + z_i_3_j_0 = 0
 Rest10_d_4_i_0: - 431.631470111809 x_i_4_j_0 + z_i_4_j_0 = 0
 Rest10_d_5_i_0: - 1039.578735008245 x_i_5_j_0 + z_i_5_j_0 = 0
 Rest10_d_6_i_0: - 1046.784342761388 x_i_6_j_0 + z_i_6_j_0 = 0
 Rest10_d_0_i_1: - 626.3111973636819 x_i_0_j_1 + z_i_0_j_1 = 0
 Rest10_d_2_i_1: - 955.7439290076408 x_i_2_j_1 + z_i_2_j_1 = 0
 Rest10_d_3_i_1: - 748.2798947572219 x_i_3_j_1 + z_i_3_j_1 = 0
 Rest10_d_4_i_1: - 537.9791840393933 x_i_4_j_1 + z_i_4_j_1 = 0
 Rest10_d_5_i_1: - 428.6531088380699 x_i_5_j_1 + z_i_5_j_1 = 0
 Rest10_d_6_i_1: - 420.7151691461711 x_i_6_j_1 + z_i_6_j_1 = 0
 Rest10_d_0_i_2: - 383.2747490016342 x_i_0_j_2 + z_i_0_j_2 = 0
 Rest10_d_1_i_2: - 955.7439290076408 x_i_1_j_2 + z_i_1_j_2 = 0
 Rest10_d_3_i_2: - 235.370634094699 x_i_3_j_2 + z_i_3_j_2 = 0
 Rest10_d_4_i_2: - 459.9983224430179 x_i_4_j_2 + z_i_4_j_2 = 0
 Rest10_d_5_i_2: - 1332.15080040771 x_i_5_j_2 + z_i_5_j_2 = 0
 Rest10_d_6_i_2: - 1369.99003206684 x_i_6_j_2 + z_i_6_j_2 = 0
 Rest10_d_0_i_3: - 359.6409345614645 x_i_0_j_3 + z_i_0_j_3 = 0
 Rest10_d_1_i_3: - 748.2798947572219 x_i_1_j_3 + z_i_1_j_3 = 0
 Rest10_d_2_i_3: - 235.370634094699 x_i_2_j_3 + z_i_2_j_3 = 0
 Rest10_d_4_i_3: - 227.6437771668983 x_i_4_j_3 + z_i_4_j_3 = 0
 Rest10_d_5_i_3: - 1107.19144338736 x_i_5_j_3 + z_i_5_j_3 = 0
 Rest10_d_6_i_3: - 1153.167115416718 x_i_6_j_3 + z_i_6_j_3 = 0
 Rest10_d_0_i_4: - 431.631470111809 x_i_0_j_4 + z_i_0_j_4 = 0
 Rest10_d_1_i_4: - 537.9791840393933 x_i_1_j_4 + z_i_1_j_4 = 0
 Rest10_d_2_i_4: - 459.9983224430179 x_i_2_j_4 + z_i_2_j_4 = 0
 Rest10_d_3_i_4: - 227.6437771668983 x_i_3_j_4 + z_i_3_j_4 = 0
 Rest10_d_5_i_4: - 879.5612021205787 x_i_5_j_4 + z_i_5_j_4 = 0
 Rest10_d_6_i_4: - 931.6879480966337 x_i_6_j_4 + z_i_6_j_4 = 0
 Rest10_d_0_i_5: - 1039.578735008245 x_i_0_j_5 + z_i_0_j_5 = 0
 Rest10_d_1_i_5: - 428.6531088380699 x_i_1_j_5 + z_i_1_j_5 = 0
 Rest10_d_2_i_5: - 1332.15080040771 x_i_2_j_5 + z_i_2_j_5 = 0
 Rest10_d_3_i_5: - 1107.19144338736 x_i_3_j_5 + z_i_3_j_5 = 0
 Rest10_d_4_i_5: - 879.5612021205787 x_i_4_j_5 + z_i_4_j_5 = 0
 Rest10_d_6_i_5: - 165.6263886336316 x_i_6_j_5 + z_i_6_j_5 = 0
 Rest10_d_0_i_6: - 1046.784342761388 x_i_0_j_6 + z_i_0_j_6 = 0
 Rest10_d_1_i_6: - 420.7151691461711 x_i_1_j_6 + z_i_1_j_6 = 0
 Rest10_d_2_i_6: - 1369.99003206684 x_i_2_j_6 + z_i_2_j_6 = 0
 Rest10_d_3_i_6: - 1153.167115416718 x_i_3_j_6 + z_i_3_j_6 = 0
 Rest10_d_4_i_6: - 931.6879480966337 x_i_4_j_6 + z_i_4_j_6 = 0
 Rest10_d_5_i_6: - 165.6263886336316 x_i_5_j_6 + z_i_5_j_6 = 0
 Rest10_d_0_i_7: - 497.3871666732606 x_i_0_j_7 + z_i_0_j_7 = 0
 Rest10_d_1_i_7: - 133.698832376224 x_i_1_j_7 + z_i_1_j_7 = 0
 Rest10_d_2_i_7: - 847.8630840093704 x_i_2_j_7 + z_i_2_j_7 = 0
 Rest10_d_3_i_7: - 649.1983420960854 x_i_3_j_7 + z_i_3_j_7 = 0
 Rest10_d_4_i_7: - 450.7522681359367 x_i_4_j_7 + z_i_4_j_7 = 0
 Rest10_d_5_i_7: - 561.7349853085417 x_i_5_j_7 + z_i_5_j_7 = 0
 Rest10_d_6_i_7: - 550.3915392670228 x_i_6_j_7 + z_i_6_j_7 = 0
 Rest10_d_0_i_8: - 460.692693669425 x_i_0_j_8 + z_i_0_j_8 = 0
 Rest10_d_1_i_8: - 1076.64645546464 x_i_1_j_8 + z_i_1_j_8 = 0
 Rest10_d_2_i_8: - 180.6583757053627 x_i_2_j_8 + z_i_2_j_8 = 0
 Rest10_d_3_i_8: - 404.2891092133397 x_i_3_j_8 + z_i_3_j_8 = 0
 Rest10_d_4_i_8: - 619.4575670925523 x_i_4_j_8 + z_i_4_j_8 = 0
 Rest10_d_5_i_8: - 1471.470228719565 x_i_5_j_8 + z_i_5_j_8 = 0
 Rest10_d_6_i_8: - 1495.977908426458 x_i_6_j_8 + z_i_6_j_8 = 0
 Rest10_d_0_i_9: - 420.0320979774304 x_i_0_j_9 + z_i_0_j_9 = 0
 Rest10_d_1_i_9: - 256.122032105799 x_i_1_j_9 + z_i_1_j_9 = 0
 Rest10_d_2_i_9: - 727.0936144375 x_i_2_j_9 + z_i_2_j_9 = 0
 Rest10_d_3_i_9: - 493.9743042916205 x_i_3_j_9 + z_i_3_j_9 = 0
 Rest10_d_4_i_9: - 282.1829043265035 x_i_4_j_9 + z_i_4_j_9 = 0
 Rest10_d_5_i_9: - 629.8450002510837 x_i_5_j_9 + z_i_5_j_9 = 0
 Rest10_d_6_i_9: - 661.2911916943247 x_i_6_j_9 + z_i_6_j_9 = 0
 Rest10_d_0_i_10: - 383.2747490016342 x_i_0_j_10 + z_i_0_j_10 = 0
 Rest10_d_1_i_10: - 955.7439290076408 x_i_1_j_10 + z_i_1_j_10 = 0
 Rest10_d_2_i_10: - 1e-06 x_i_2_j_10 + z_i_2_j_10 = 0
 Rest10_d_3_i_10: - 235.370634094699 x_i_3_j_10 + z_i_3_j_10 = 0
 Rest10_d_4_i_10: - 459.9983224430179 x_i_4_j_10 + z_i_4_j_10 = 0
 Rest10_d_5_i_10: - 1332.15080040771 x_i_5_j_10 + z_i_5_j_10 = 0
 Rest10_d_6_i_10: - 1369.99003206684 x_i_6_j_10 + z_i_6_j_10 = 0
 Rest10_d_0_i_11: - 1039.578735008245 x_i_0_j_11 + z_i_0_j_11 = 0
 Rest10_d_1_i_11: - 428.6531088380699 x_i_1_j_11 + z_i_1_j_11 = 0
 Rest10_d_2_i_11: - 1332.15080040771 x_i_2_j_11 + z_i_2_j_11 = 0
 Rest10_d_3_i_11: - 1107.19144338736 x_i_3_j_11 + z_i_3_j_11 = 0
 Rest10_d_4_i_11: - 879.5612021205787 x_i_4_j_11 + z_i_4_j_11 = 0
 Rest10_d_5_i_11: - 1e-06 x_i_5_j_11 + z_i_5_j_11 = 0
 Rest10_d_6_i_11: - 165.6263886336316 x_i_6_j_11 + z_i_6_j_11 = 0
 Rest10_d_0_i_12: - 498.1098723888175 x_i_0_j_12 + z_i_0_j_12 = 0
 Rest10_d_1_i_12: - 403.8396411350555 x_i_1_j_12 + z_i_1_j_12 = 0
 Rest10_d_2_i_12: - 624.0130635855236 x_i_2_j_12 + z_i_2_j_12 = 0
 Rest10_d_3_i_12: - 391.8627893153417 x_i_3_j_12 + z_i_3_j_12 = 0
 Rest10_d_4_i_12: - 164.3174239705349 x_i_4_j_12 + z_i_4_j_12 = 0
 Rest10_d_5_i_12: - 793.5357411250001 x_i_5_j_12 + z_i_5_j_12 = 0
 Rest10_d_6_i_12: - 776.5475136202328 x_i_6_j_12 + z_i_6_j_12 = 0
 Rest11_i_0_j_7: - 1666.301167623776 x_i_0_j_7 + z_i_0_j_7 <= 0
 Rest11_i_0_j_8: - 1619.341624294637 x_i_0_j_8 + z_i_0_j_8 <= 0
 Rest11_i_0_j_9: - 1543.877967894201 x_i_0_j_9 + z_i_0_j_9 <= 0
 Rest11_i_0_j_10: - 1800 x_i_0_j_10 + z_i_0_j_10 <= 0
 Rest11_i_0_j_11: - 1800 x_i_0_j_11 + z_i_0_j_11 <= 0
 Rest11_i_0_j_12: - 1635.682576029465 x_i_0_j_12 + z_i_0_j_12 <= 0
 Rest11_i_1_j_7: - 1666.301167623776 x_i_1_j_7 + z_i_1_j_7 <= 0
 Rest11_i_1_j_8: - 1619.341624294637 x_i_1_j_8 + z_i_1_j_8 <= 0
 Rest11_i_1_j_9: - 1543.877967894201 x_i_1_j_9 + z_i_1_j_9 <= 0
 Rest11_i_1_j_10: - 1800 x_i_1_j_10 + z_i_1_j_10 <= 0
 Rest11_i_1_j_11: - 1800 x_i_1_j_11 + z_i_1_j_11 <= 0
 Rest11_i_1_j_12: - 1635.682576029465 x_i_1_j_12 + z_i_1_j_12 <= 0
 Rest11_i_2_j_7: - 1666.301167623776 x_i_2_j_7 + z_i_2_j_7 <= 0
 Rest11_i_2_j_8: - 1619.341624294637 x_i_2_j_8 + z_i_2_j_8 <= 0
 Rest11_i_2_j_9: - 1543.877967894201 x_i_2_j_9 + z_i_2_j_9 <= 0
 Rest11_i_2_j_10: - 1800 x_i_2_j_10 + z_i_2_j_10 <= 0
 Rest11_i_2_j_11: - 1800 x_i_2_j_11 + z_i_2_j_11 <= 0
 Rest11_i_2_j_12: - 1635.682576029465 x_i_2_j_12 + z_i_2_j_12 <= 0
 Rest11_i_3_j_7: - 1666.301167623776 x_i_3_j_7 + z_i_3_j_7 <= 0
 Rest11_i_3_j_8: - 1619.341624294637 x_i_3_j_8 + z_i_3_j_8 <= 0
 Rest11_i_3_j_9: - 1543.877967894201 x_i_3_j_9 + z_i_3_j_9 <= 0
 Rest11_i_3_j_10: - 1800 x_i_3_j_10 + z_i_3_j_10 <= 0
 Rest11_i_3_j_11: - 1800 x_i_3_j_11 + z_i_3_j_11 <= 0
 Rest11_i_3_j_12: - 1635.682576029465 x_i_3_j_12 + z_i_3_j_12 <= 0
 Rest11_i_4_j_7: - 1666.301167623776 x_i_4_j_7 + z_i_4_j_7 <= 0
 Rest11_i_4_j_8: - 1619.341624294637 x_i_4_j_8 + z_i_4_j_8 <= 0
 Rest11_i_4_j_9: - 1543.877967894201 x_i_4_j_9 + z_i_4_j_9 <= 0
 Rest11_i_4_j_10: - 1800 x_i_4_j_10 + z_i_4_j_10 <= 0
 Rest11_i_4_j_11: - 1800 x_i_4_j_11 + z_i_4_j_11 <= 0
 Rest11_i_4_j_12: - 1635.682576029465 x_i_4_j_12 + z_i_4_j_12 <= 0
 Rest11_i_5_j_7: - 1666.301167623776 x_i_5_j_7 + z_i_5_j_7 <= 0
 Rest11_i_5_j_8: - 1619.341624294637 x_i_5_j_8 + z_i_5_j_8 <= 0
 Rest11_i_5_j_9: - 1543.877967894201 x_i_5_j_9 + z_i_5_j_9 <= 0
 Rest11_i_5_j_10: - 1800 x_i_5_j_10 + z_i_5_j_10 <= 0
 Rest11_i_5_j_11: - 1800 x_i_5_j_11 + z_i_5_j_11 <= 0
 Rest11_i_5_j_12: - 1635.682576029465 x_i_5_j_12 + z_i_5_j_12 <= 0
 Rest11_i_6_j_7: - 1666.301167623776 x_i_6_j_7 + z_i_6_j_7 <= 0
 Rest11_i_6_j_8: - 1619.341624294637 x_i_6_j_8 + z_i_6_j_8 <= 0
 Rest11_i_6_j_9: - 1543.877967894201 x_i_6_j_9 + z_i_6_j_9 <= 0
 Rest11_i_6_j_10: - 1800 x_i_6_j_10 + z_i_6_j_10 <= 0
 Rest11_i_6_j_11: - 1800 x_i_6_j_11 + z_i_6_j_11 <= 0
 Rest11_i_6_j_12: - 1635.682576029465 x_i_6_j_12 + z_i_6_j_12 <= 0
 Rest11_i_7_j_8: - 1619.341624294637 x_i_7_j_8 + z_i_7_j_8 <= 0
 Rest11_i_7_j_9: - 1543.877967894201 x_i_7_j_9 + z_i_7_j_9 <= 0
 Rest11_i_7_j_10: - 1800 x_i_7_j_10 + z_i_7_j_10 <= 0
 Rest11_i_7_j_11: - 1800 x_i_7_j_11 + z_i_7_j_11 <= 0
 Rest11_i_7_j_12: - 1635.682576029465 x_i_7_j_12 + z_i_7_j_12 <= 0
 Rest11_i_8_j_7: - 1666.301167623776 x_i_8_j_7 + z_i_8_j_7 <= 0
 Rest11_i_8_j_9: - 1543.877967894201 x_i_8_j_9 + z_i_8_j_9 <= 0
 Rest11_i_8_j_10: - 1800 x_i_8_j_10 + z_i_8_j_10 <= 0
 Rest11_i_8_j_11: - 1800 x_i_8_j_11 + z_i_8_j_11 <= 0
 Rest11_i_8_j_12: - 1635.682576029465 x_i_8_j_12 + z_i_8_j_12 <= 0
 Rest11_i_9_j_7: - 1666.301167623776 x_i_9_j_7 + z_i_9_j_7 <= 0
 Rest11_i_9_j_8: - 1619.341624294637 x_i_9_j_8 + z_i_9_j_8 <= 0
 Rest11_i_9_j_10: - 1800 x_i_9_j_10 + z_i_9_j_10 <= 0
 Rest11_i_9_j_11: - 1800 x_i_9_j_11 + z_i_9_j_11 <= 0
 Rest11_i_9_j_12: - 1635.682576029465 x_i_9_j_12 + z_i_9_j_12 <= 0
 Rest11_i_10_j_7: - 1666.301167623776 x_i_10_j_7 + z_i_10_j_7 <= 0
 Rest11_i_10_j_8: - 1619.341624294637 x_i_10_j_8 + z_i_10_j_8 <= 0
 Rest11_i_10_j_9: - 1543.877967894201 x_i_10_j_9 + z_i_10_j_9 <= 0
 Rest11_i_10_j_11: - 1800 x_i_10_j_11 + z_i_10_j_11 <= 0
 Rest11_i_10_j_12: - 1635.682576029465 x_i_10_j_12 + z_i_10_j_12 <= 0
 Rest11_i_11_j_7: - 1666.301167623776 x_i_11_j_7 + z_i_11_j_7 <= 0
 Rest11_i_11_j_8: - 1619.341624294637 x_i_11_j_8 + z_i_11_j_8 <= 0
 Rest11_i_11_j_9: - 1543.877967894201 x_i_11_j_9 + z_i_11_j_9 <= 0
 Rest11_i_11_j_10: - 1800 x_i_11_j_10 + z_i_11_j_10 <= 0
 Rest11_i_11_j_12: - 1635.682576029465 x_i_11_j_12 + z_i_11_j_12 <= 0
 Rest11_i_12_j_7: - 1666.301167623776 x_i_12_j_7 + z_i_12_j_7 <= 0
 Rest11_i_12_j_8: - 1619.341624294637 x_i_12_j_8 + z_i_12_j_8 <= 0
 Rest11_i_12_j_9: - 1543.877967894201 x_i_12_j_9 + z_i_12_j_9 <= 0
 Rest11_i_12_j_10: - 1800 x_i_12_j_10 + z_i_12_j_10 <= 0
 Rest11_i_12_j_11: - 1800 x_i_12_j_11 + z_i_12_j_11 <= 0
 Rest12_i_0_d_1: - 1800 x_i_0_j_1 + z_i_0_j_1 <= 0
 Rest12_i_0_d_2: - 1800 x_i_0_j_2 + z_i_0_j_2 <= 0
 Rest12_i_0_d_3: - 1800 x_i_0_j_3 + z_i_0_j_3 <= 0
 Rest12_i_0_d_4: - 1800 x_i_0_j_4 + z_i_0_j_4 <= 0
 Rest12_i_0_d_5: - 1800 x_i_0_j_5 + z_i_0_j_5 <= 0
 Rest12_i_0_d_6: - 1800 x_i_0_j_6 + z_i_0_j_6 <= 0
 Rest12_i_1_d_0: - 1800 x_i_1_j_0 + z_i_1_j_0 <= 0
 Rest12_i_1_d_2: - 1800 x_i_1_j_2 + z_i_1_j_2 <= 0
 Rest12_i_1_d_3: - 1800 x_i_1_j_3 + z_i_1_j_3 <= 0
 Rest12_i_1_d_4: - 1800 x_i_1_j_4 + z_i_1_j_4 <= 0
 Rest12_i_1_d_5: - 1800 x_i_1_j_5 + z_i_1_j_5 <= 0
 Rest12_i_1_d_6: - 1800 x_i_1_j_6 + z_i_1_j_6 <= 0
 Rest12_i_2_d_0: - 1800 x_i_2_j_0 + z_i_2_j_0 <= 0
 Rest12_i_2_d_1: - 1800 x_i_2_j_1 + z_i_2_j_1 <= 0
 Rest12_i_2_d_3: - 1800 x_i_2_j_3 + z_i_2_j_3 <= 0
 Rest12_i_2_d_4: - 1800 x_i_2_j_4 + z_i_2_j_4 <= 0
 Rest12_i_2_d_5: - 1800 x_i_2_j_5 + z_i_2_j_5 <= 0
 Rest12_i_2_d_6: - 1800 x_i_2_j_6 + z_i_2_j_6 <= 0
 Rest12_i_3_d_0: - 1800 x_i_3_j_0 + z_i_3_j_0 <= 0
 Rest12_i_3_d_1: - 1800 x_i_3_j_1 + z_i_3_j_1 <= 0
 Rest12_i_3_d_2: - 1800 x_i_3_j_2 + z_i_3_j_2 <= 0
 Rest12_i_3_d_4: - 1800 x_i_3_j_4 + z_i_3_j_4 <= 0
 Rest12_i_3_d_5: - 1800 x_i_3_j_5 + z_i_3_j_5 <= 0
 Rest12_i_3_d_6: - 1800 x_i_3_j_6 + z_i_3_j_6 <= 0
 Rest12_i_4_d_0: - 1800 x_i_4_j_0 + z_i_4_j_0 <= 0
 Rest12_i_4_d_1: - 1800 x_i_4_j_1 + z_i_4_j_1 <= 0
 Rest12_i_4_d_2: - 1800 x_i_4_j_2 + z_i_4_j_2 <= 0
 Rest12_i_4_d_3: - 1800 x_i_4_j_3 + z_i_4_j_3 <= 0
 Rest12_i_4_d_5: - 1800 x_i_4_j_5 + z_i_4_j_5 <= 0
 Rest12_i_4_d_6: - 1800 x_i_4_j_6 + z_i_4_j_6 <= 0
 Rest12_i_5_d_0: - 1800 x_i_5_j_0 + z_i_5_j_0 <= 0
 Rest12_i_5_d_1: - 1800 x_i_5_j_1 + z_i_5_j_1 <= 0
 Rest12_i_5_d_2: - 1800 x_i_5_j_2 + z_i_5_j_2 <= 0
 Rest12_i_5_d_3: - 1800 x_i_5_j_3 + z_i_5_j_3 <= 0
 Rest12_i_5_d_4: - 1800 x_i_5_j_4 + z_i_5_j_4 <= 0
 Rest12_i_5_d_6: - 1800 x_i_5_j_6 + z_i_5_j_6 <= 0
 Rest12_i_6_d_0: - 1800 x_i_6_j_0 + z_i_6_j_0 <= 0
 Rest12_i_6_d_1: - 1800 x_i_6_j_1 + z_i_6_j_1 <= 0
 Rest12_i_6_d_2: - 1800 x_i_6_j_2 + z_i_6_j_2 <= 0
 Rest12_i_6_d_3: - 1800 x_i_6_j_3 + z_i_6_j_3 <= 0
 Rest12_i_6_d_4: - 1800 x_i_6_j_4 + z_i_6_j_4 <= 0
 Rest12_i_6_d_5: - 1800 x_i_6_j_5 + z_i_6_j_5 <= 0
 Rest12_i_7_d_0: - 1800 x_i_7_j_0 + z_i_7_j_0 <= 0
 Rest12_i_7_d_1: - 1800 x_i_7_j_1 + z_i_7_j_1 <= 0
 Rest12_i_7_d_2: - 1800 x_i_7_j_2 + z_i_7_j_2 <= 0
 Rest12_i_7_d_3: - 1800 x_i_7_j_3 + z_i_7_j_3 <= 0
 Rest12_i_7_d_4: - 1800 x_i_7_j_4 + z_i_7_j_4 <= 0
 Rest12_i_7_d_5: - 1800 x_i_7_j_5 + z_i_7_j_5 <= 0
 Rest12_i_7_d_6: - 1800 x_i_7_j_6 + z_i_7_j_6 <= 0
 Rest12_i_8_d_0: - 1800 x_i_8_j_0 + z_i_8_j_0 <= 0
 Rest12_i_8_d_1: - 1800 x_i_8_j_1 + z_i_8_j_1 <= 0
 Rest12_i_8_d_2: - 1800 x_i_8_j_2 + z_i_8_j_2 <= 0
 Rest12_i_8_d_3: - 1800 x_i_8_j_3 + z_i_8_j_3 <= 0
 Rest12_i_8_d_4: - 1800 x_i_8_j_4 + z_i_8_j_4 <= 0
 Rest12_i_8_d_5: - 1800 x_i_8_j_5 + z_i_8_j_5 <= 0
 Rest12_i_8_d_6: - 1800 x_i_8_j_6 + z_i_8_j_6 <= 0
 Rest12_i_9_d_0: - 1800 x_i_9_j_0 + z_i_9_j_0 <= 0
 Rest12_i_9_d_1: - 1800 x_i_9_j_1 + z_i_9_j_1 <= 0
 Rest12_i_9_d_2: - 1800 x_i_9_j_2 + z_i_9_j_2 <= 0
 Rest12_i_9_d_3: - 1800 x_i_9_j_3 + z_i_9_j_3 <= 0
 Rest12_i_9_d_4: - 1800 x_i_9_j_4 + z_i_9_j_4 <= 0
 Rest12_i_9_d_5: - 1800 x_i_9_j_5 + z_i_9_j_5 <= 0
 Rest12_i_9_d_6: - 1800 x_i_9_j_6 + z_i_9_j_6 <= 0
Bounds
 vars_Dmin <= 6
Binaries
 x_i_0_j_0 x_i_0_j_1 x_i_0_j_2 x_i_0_j_3 x_i_0_j_4 x_i_0_j_5 x_i_0_j_6
 x_i_0_j_7 x_i_0_j_8 x_i_0_j_9 x_i_0_j_10 x_i_0_j_11 x_i_0_j_12 x_i_1_j_0
 x_i_1_j_1 x_i_1_j_2 x_i_1_j_3 x_i_1_j_4 x_i_1_j_5 x_i_1_j_6 x_i_1_j_7
 x_i_1_j_8 x_i_1_j_9 x_i_1_j_10 x_i_1_j_11 x_i_1_j_12 x_i_2_j_0 x_i_2_j_1
 x_i_2_j_2 x_i_2_j_3 x_i_2_j_4 x_i_2_j_5 x_i_2_j_6 x_i_2_j_7 x_i_2_j_8
 x_i_2_j_9 x_i_2_j_10 x_i_2_j_11 x_i_2_j_12 x_i_3_j_0 x_i_3_j_1 x_i_3_j_2
 x_i_3_j_3 x_i_3_j_4 x_i_3_j_5 x_i_3_j_6 x_i_3_j_7 x_i_3_j_8 x_i_3_j_9
 x_i_3_j_10 x_i_3_j_11 x_i_3_j_12 x_i_4_j_0 x_i_4_j_1 x_i_4_j_2 x_i_4_j_3
 x_i_4_j_4 x_i_4_j_5 x_i_4_j_6 x_i_4_j_7 x_i_4_j_8 x_i_4_j_9 x_i_4_j_10
 x_i_4_j_11 x_i_4_j_12 x_i_5_j_0 x_i_5_j_1 x_i_5_j_2 x_i_5_j_3 x_i_5_j_4
 x_i_5_j_5 x_i_5_j_6 x_i_5_j_7 x_i_5_j_8 x_i_5_j_9 x_i_5_j_10 x_i_5_j_11
 x_i_5_j_12 x_i_6_j_0 x_i_6_j_1 x_i_6_j_2 x_i_6_j_3 x_i_6_j_4 x_i_6_j_5
 x_i_6_j_6 x_i_6_j_7 x_i_6_j_8 x_i_6_j_9 x_i_6_j_10 x_i_6_j_11 x_i_6_j_12
 x_i_7_j_0 x_i_7_j_1 x_i_7_j_2 x_i_7_j_3 x_i_7_j_4 x_i_7_j_5 x_i_7_j_6
 x_i_7_j_7 x_i_7_j_8 x_i_7_j_9 x_i_7_j_10 x_i_7_j_11 x_i_7_j_12 x_i_8_j_0
 x_i_8_j_1 x_i_8_j_2 x_i_8_j_3 x_i_8_j_4 x_i_8_j_5 x_i_8_j_6 x_i_8_j_7
 x_i_8_j_8 x_i_8_j_9 x_i_8_j_10 x_i_8_j_11 x_i_8_j_12 x_i_9_j_0 x_i_9_j_1
 x_i_9_j_2 x_i_9_j_3 x_i_9_j_4 x_i_9_j_5 x_i_9_j_6 x_i_9_j_7 x_i_9_j_8
 x_i_9_j_9 x_i_9_j_10 x_i_9_j_11 x_i_9_j_12 x_i_10_j_0 x_i_10_j_1
 x_i_10_j_2 x_i_10_j_3 x_i_10_j_4 x_i_10_j_5 x_i_10_j_6 x_i_10_j_7
 x_i_10_j_8 x_i_10_j_9 x_i_10_j_10 x_i_10_j_11 x_i_10_j_12 x_i_11_j_0
 x_i_11_j_1 x_i_11_j_2 x_i_11_j_3 x_i_11_j_4 x_i_11_j_5 x_i_11_j_6
 x_i_11_j_7 x_i_11_j_8 x_i_11_j_9 x_i_11_j_10 x_i_11_j_11 x_i_11_j_12
 x_i_12_j_0 x_i_12_j_1 x_i_12_j_2 x_i_12_j_3 x_i_12_j_4 x_i_12_j_5
 x_i_12_j_6 x_i_12_j_7 x_i_12_j_8 x_i_12_j_9 x_i_12_j_10 x_i_12_j_11
 x_i_12_j_12 d_0 d_1 d_2 d_3 d_4 d_5
Generals
 vars_Dmin
End
