\ LP format - for model browsing. Use MPS format to capture full model detail.
\ Signature: 0x1e3c23729346aefe
Minimize multi-objectives
  OBJ0: Priority=0 Weight=0.9999 AbsTol=1e-06 RelTol=0
   vars_Pmax + 0 x_i_0_j_0 + 0 x_i_1_j_1 + 0 x_i_2_j_2 + 0 x_i_3_j_3
   + 0 x_i_4_j_4 + 0 x_i_5_j_5 + 0 x_i_6_j_6 + 0 x_i_7_j_7 + 0 x_i_8_j_8
   + 0 x_i_9_j_9 + 0 x_i_10_j_10 + 0 x_i_11_j_11 + 0 x_i_12_j_12
   + 0 z_i_0_j_0 + 0 z_i_1_j_1 + 0 z_i_2_j_2 + 0 z_i_3_j_3 + 0 z_i_4_j_4
   + 0 z_i_5_j_5 + 0 z_i_6_j_6 + 0 z_i_7_j_7 + 0 z_i_8_j_8 + 0 z_i_9_j_9
   + 0 z_i_10_j_10 + 0 z_i_11_j_11 + 0 z_i_12_j_12
  OBJ1: Priority=0 Weight=0.0001 AbsTol=1e-06 RelTol=0
   vars_Dmin
Subject To
 Rest1: - vars_Pmax + 1878.933592091046 x_i_0_j_1
   + 1149.824247004903 x_i_0_j_2 + 1078.922803684394 x_i_0_j_3
   + 1294.894410335427 x_i_0_j_4 + 3118.736205024734 x_i_0_j_5
   + 3140.353028284163 x_i_0_j_6 + 2457.135880026498 x_i_0_j_7
   + 168.9051196319716 x_i_0_j_8 + 2057.009438395797 x_i_0_j_9
   + 687.9243915375188 x_i_0_j_10 + 1216.777023265701 x_i_0_j_11
   + 1229.734840565233 x_i_0_j_12 + 1878.933592091046 x_i_1_j_0
   + 2867.231787022922 x_i_1_j_2 + 2244.839684271666 x_i_1_j_3
   + 1613.93755211818 x_i_1_j_4 + 1285.95932651421 x_i_1_j_5
   + 1262.145507438514 x_i_1_j_6 + 721.0000958819744 x_i_1_j_7
   + 2039.92053421077 x_i_1_j_8 + 184.4545490023494 x_i_1_j_9
   + 2418.565950879332 x_i_1_j_10 + 920.5103319170996 x_i_1_j_11
   + 2923.385625832596 x_i_1_j_12 + 1149.824247004903 x_i_2_j_0
   + 2867.231787022922 x_i_2_j_1 + 706.1119022840971 x_i_2_j_3
   + 1379.994967329054 x_i_2_j_4 + 3996.45240122313 x_i_2_j_5
   + 4109.970096200519 x_i_2_j_6 + 3536.975990591431 x_i_2_j_7
   + 1067.73118850205 x_i_2_j_8 + 3027.707196432924 x_i_2_j_9
   + 472.3624045042774 x_i_2_j_10 + 1998.543796149351 x_i_2_j_11
   + 92.07865231903979 x_i_2_j_12 + 1078.922803684394 x_i_3_j_0
   + 2244.839684271666 x_i_3_j_1 + 706.1119022840971 x_i_3_j_2
   + 682.9313315006949 x_i_3_j_4 + 3321.574330162081 x_i_3_j_5
   + 3459.501346250155 x_i_3_j_6 + 2935.509982619283 x_i_3_j_7
   + 1049.631108874287 x_i_3_j_8 + 2392.506419718924 x_i_3_j_9
   + 469.2658040708062 x_i_3_j_10 + 1338.702673282427 x_i_3_j_11
   + 728.2007717752454 x_i_3_j_12 + 1294.894410335427 x_i_4_j_0
   + 1613.93755211818 x_i_4_j_1 + 1379.994967329054 x_i_4_j_2
   + 682.9313315006949 x_i_4_j_3 + 2638.683606361736 x_i_4_j_5
   + 2795.063844289901 x_i_4_j_6 + 2321.478054361179 x_i_4_j_7
   + 1345.952241929297 x_i_4_j_8 + 1747.510396054202 x_i_4_j_9
   + 1096.968664838129 x_i_4_j_10 + 693.4277394043238 x_i_4_j_11
   + 1409.237751077688 x_i_4_j_12 + 3118.736205024734 x_i_5_j_0
   + 1285.95932651421 x_i_5_j_1 + 3996.45240122313 x_i_5_j_2
   + 3321.574330162081 x_i_5_j_3 + 2638.683606361736 x_i_5_j_4
   + 496.8791659008949 x_i_5_j_6 + 1157.295277743483 x_i_5_j_7
   + 3285.060686493691 x_i_5_j_8 + 1102.061902959505 x_i_5_j_9
   + 3573.495400266897 x_i_5_j_10 + 2005.86828365033 x_i_5_j_11
   + 4037.188508444248 x_i_5_j_12 + 3140.353028284163 x_i_6_j_0
   + 1262.145507438514 x_i_6_j_1 + 4109.970096200519 x_i_6_j_2
   + 3459.501346250155 x_i_6_j_3 + 2795.063844289901 x_i_6_j_4
   + 496.8791659008949 x_i_6_j_5 + 857.3989960550839 x_i_6_j_7
   + 3300.151610261641 x_i_6_j_8 + 1088.610025705487 x_i_6_j_9
   + 3665.400074009017 x_i_6_j_10 + 2121.598363884895 x_i_6_j_11
   + 4158.387113054293 x_i_6_j_12 + 2457.135880026498 x_i_7_j_0
   + 721.0000958819744 x_i_7_j_1 + 3536.975990591431 x_i_7_j_2
   + 2935.509982619283 x_i_7_j_3 + 2321.478054361179 x_i_7_j_4
   + 1157.295277743483 x_i_7_j_5 + 857.3989960550839 x_i_7_j_6
   + 2683.3781120625 x_i_7_j_8 + 646.0960852295041 x_i_7_j_9
   + 3064.753412746659 x_i_7_j_10 + 1630.651199622222 x_i_7_j_11
   + 3593.915895843557 x_i_7_j_12 + 168.9051196319716 x_i_8_j_0
   + 2039.92053421077 x_i_8_j_1 + 1067.73118850205 x_i_8_j_2
   + 1049.631108874287 x_i_8_j_3 + 1345.952241929297 x_i_8_j_4
   + 3285.060686493691 x_i_8_j_5 + 3300.151610261641 x_i_8_j_6
   + 2683.3781120625 x_i_8_j_7 + 2219.098278154665 x_i_8_j_9
   + 631.0604753223437 x_i_8_j_10 + 1384.43214969686 x_i_8_j_11
   + 1152.892399164115 x_i_8_j_12 + 2057.009438395797 x_i_9_j_0
   + 184.4545490023494 x_i_9_j_1 + 3027.707196432924 x_i_9_j_2
   + 2392.506419718924 x_i_9_j_3 + 1747.510396054202 x_i_9_j_4
   + 1102.061902959505 x_i_9_j_5 + 1088.610025705487 x_i_9_j_6
   + 646.0960852295041 x_i_9_j_7 + 2219.098278154665 x_i_9_j_8
   + 2654.0534000625 x_i_9_j_10 + 1057.295720817649 x_i_9_j_11
   + 3083.696328414184 x_i_9_j_12 + 687.9243915375188 x_i_10_j_0
   + 2418.565950879332 x_i_10_j_1 + 472.3624045042774 x_i_10_j_2
   + 469.2658040708062 x_i_10_j_3 + 1096.968664838129 x_i_10_j_4
   + 3573.495400266897 x_i_10_j_5 + 3665.400074009017 x_i_10_j_6
   + 3064.753412746659 x_i_10_j_7 + 631.0604753223437 x_i_10_j_8
   + 2654.0534000625 x_i_10_j_9 + 1567.786610913118 x_i_10_j_11
   + 545.924608723371 x_i_10_j_12 + 1216.777023265701 x_i_11_j_0
   + 920.5103319170996 x_i_11_j_1 + 1998.543796149351 x_i_11_j_2
   + 1338.702673282427 x_i_11_j_3 + 693.4277394043238 x_i_11_j_4
   + 2005.86828365033 x_i_11_j_5 + 2121.598363884895 x_i_11_j_6
   + 1630.651199622222 x_i_11_j_7 + 1384.43214969686 x_i_11_j_8
   + 1057.295720817649 x_i_11_j_9 + 1567.786610913118 x_i_11_j_10
   + 2078.8056185625 x_i_11_j_12 + 1229.734840565233 x_i_12_j_0
   + 2923.385625832596 x_i_12_j_1 + 92.07865231903979 x_i_12_j_2
   + 728.2007717752454 x_i_12_j_3 + 1409.237751077688 x_i_12_j_4
   + 4037.188508444248 x_i_12_j_5 + 4158.387113054293 x_i_12_j_6
   + 3593.915895843557 x_i_12_j_7 + 1152.892399164115 x_i_12_j_8
   + 3083.696328414184 x_i_12_j_9 + 545.924608723371 x_i_12_j_10
   + 2078.8056185625 x_i_12_j_11 <= 0
 Rest2_depot_0: x_i_0_j_1 + x_i_0_j_2 + x_i_0_j_3 + x_i_0_j_4 + x_i_0_j_5
   + x_i_0_j_6 + x_i_0_j_7 + x_i_0_j_8 + x_i_0_j_9 + x_i_0_j_10
   + x_i_0_j_11 + x_i_0_j_12 - x_i_1_j_0 - x_i_2_j_0 - x_i_3_j_0
   - x_i_4_j_0 - x_i_5_j_0 - x_i_6_j_0 - x_i_7_j_0 - x_i_8_j_0 - x_i_9_j_0
   - x_i_10_j_0 - x_i_11_j_0 - x_i_12_j_0 = 0
 Rest2_depot_1: - x_i_0_j_1 + x_i_1_j_0 + x_i_1_j_2 + x_i_1_j_3 + x_i_1_j_4
   + x_i_1_j_5 + x_i_1_j_6 + x_i_1_j_7 + x_i_1_j_8 + x_i_1_j_9 + x_i_1_j_10
   + x_i_1_j_11 + x_i_1_j_12 - x_i_2_j_1 - x_i_3_j_1 - x_i_4_j_1
   - x_i_5_j_1 - x_i_6_j_1 - x_i_7_j_1 - x_i_8_j_1 - x_i_9_j_1 - x_i_10_j_1
   - x_i_11_j_1 - x_i_12_j_1 = 0
 Rest2_depot_2: - x_i_0_j_2 - x_i_1_j_2 + x_i_2_j_0 + x_i_2_j_1 + x_i_2_j_3
   + x_i_2_j_4 + x_i_2_j_5 + x_i_2_j_6 + x_i_2_j_7 + x_i_2_j_8 + x_i_2_j_9
   + x_i_2_j_10 + x_i_2_j_11 + x_i_2_j_12 - x_i_3_j_2 - x_i_4_j_2
   - x_i_5_j_2 - x_i_6_j_2 - x_i_7_j_2 - x_i_8_j_2 - x_i_9_j_2 - x_i_10_j_2
   - x_i_11_j_2 - x_i_12_j_2 = 0
 Rest2_depot_3: - x_i_0_j_3 - x_i_1_j_3 - x_i_2_j_3 + x_i_3_j_0 + x_i_3_j_1
   + x_i_3_j_2 + x_i_3_j_4 + x_i_3_j_5 + x_i_3_j_6 + x_i_3_j_7 + x_i_3_j_8
   + x_i_3_j_9 + x_i_3_j_10 + x_i_3_j_11 + x_i_3_j_12 - x_i_4_j_3
   - x_i_5_j_3 - x_i_6_j_3 - x_i_7_j_3 - x_i_8_j_3 - x_i_9_j_3 - x_i_10_j_3
   - x_i_11_j_3 - x_i_12_j_3 = 0
 Rest2_depot_4: - x_i_0_j_4 - x_i_1_j_4 - x_i_2_j_4 - x_i_3_j_4 + x_i_4_j_0
   + x_i_4_j_1 + x_i_4_j_2 + x_i_4_j_3 + x_i_4_j_5 + x_i_4_j_6 + x_i_4_j_7
   + x_i_4_j_8 + x_i_4_j_9 + x_i_4_j_10 + x_i_4_j_11 + x_i_4_j_12
   - x_i_5_j_4 - x_i_6_j_4 - x_i_7_j_4 - x_i_8_j_4 - x_i_9_j_4 - x_i_10_j_4
   - x_i_11_j_4 - x_i_12_j_4 = 0
 Rest2_depot_5: - x_i_0_j_5 - x_i_1_j_5 - x_i_2_j_5 - x_i_3_j_5 - x_i_4_j_5
   + x_i_5_j_0 + x_i_5_j_1 + x_i_5_j_2 + x_i_5_j_3 + x_i_5_j_4 + x_i_5_j_6
   + x_i_5_j_7 + x_i_5_j_8 + x_i_5_j_9 + x_i_5_j_10 + x_i_5_j_11
   + x_i_5_j_12 - x_i_6_j_5 - x_i_7_j_5 - x_i_8_j_5 - x_i_9_j_5
   - x_i_10_j_5 - x_i_11_j_5 - x_i_12_j_5 = 0
 Rest4_link_lb_0: - x_i_1_j_0 - x_i_2_j_0 - x_i_3_j_0 - x_i_4_j_0
   - x_i_5_j_0 - x_i_6_j_0 - x_i_7_j_0 - x_i_8_j_0 - x_i_9_j_0 - x_i_10_j_0
   - x_i_11_j_0 - x_i_12_j_0 + d_0 <= 0
 Rest4_link_ub_0: x_i_1_j_0 + x_i_2_j_0 + x_i_3_j_0 + x_i_4_j_0 + x_i_5_j_0
   + x_i_6_j_0 + x_i_7_j_0 + x_i_8_j_0 + x_i_9_j_0 + x_i_10_j_0
   + x_i_11_j_0 + x_i_12_j_0 - 12 d_0 <= 0
 Rest4_link_lb_1: - x_i_0_j_1 - x_i_2_j_1 - x_i_3_j_1 - x_i_4_j_1
   - x_i_5_j_1 - x_i_6_j_1 - x_i_7_j_1 - x_i_8_j_1 - x_i_9_j_1 - x_i_10_j_1
   - x_i_11_j_1 - x_i_12_j_1 + d_1 <= 0
 Rest4_link_ub_1: x_i_0_j_1 + x_i_2_j_1 + x_i_3_j_1 + x_i_4_j_1 + x_i_5_j_1
   + x_i_6_j_1 + x_i_7_j_1 + x_i_8_j_1 + x_i_9_j_1 + x_i_10_j_1
   + x_i_11_j_1 + x_i_12_j_1 - 12 d_1 <= 0
 Rest4_link_lb_2: - x_i_0_j_2 - x_i_1_j_2 - x_i_3_j_2 - x_i_4_j_2
   - x_i_5_j_2 - x_i_6_j_2 - x_i_7_j_2 - x_i_8_j_2 - x_i_9_j_2 - x_i_10_j_2
   - x_i_11_j_2 - x_i_12_j_2 + d_2 <= 0
 Rest4_link_ub_2: x_i_0_j_2 + x_i_1_j_2 + x_i_3_j_2 + x_i_4_j_2 + x_i_5_j_2
   + x_i_6_j_2 + x_i_7_j_2 + x_i_8_j_2 + x_i_9_j_2 + x_i_10_j_2
   + x_i_11_j_2 + x_i_12_j_2 - 12 d_2 <= 0
 Rest4_link_lb_3: - x_i_0_j_3 - x_i_1_j_3 - x_i_2_j_3 - x_i_4_j_3
   - x_i_5_j_3 - x_i_6_j_3 - x_i_7_j_3 - x_i_8_j_3 - x_i_9_j_3 - x_i_10_j_3
   - x_i_11_j_3 - x_i_12_j_3 + d_3 <= 0
 Rest4_link_ub_3: x_i_0_j_3 + x_i_1_j_3 + x_i_2_j_3 + x_i_4_j_3 + x_i_5_j_3
   + x_i_6_j_3 + x_i_7_j_3 + x_i_8_j_3 + x_i_9_j_3 + x_i_10_j_3
   + x_i_11_j_3 + x_i_12_j_3 - 12 d_3 <= 0
 Rest4_link_lb_4: - x_i_0_j_4 - x_i_1_j_4 - x_i_2_j_4 - x_i_3_j_4
   - x_i_5_j_4 - x_i_6_j_4 - x_i_7_j_4 - x_i_8_j_4 - x_i_9_j_4 - x_i_10_j_4
   - x_i_11_j_4 - x_i_12_j_4 + d_4 <= 0
 Rest4_link_ub_4: x_i_0_j_4 + x_i_1_j_4 + x_i_2_j_4 + x_i_3_j_4 + x_i_5_j_4
   + x_i_6_j_4 + x_i_7_j_4 + x_i_8_j_4 + x_i_9_j_4 + x_i_10_j_4
   + x_i_11_j_4 + x_i_12_j_4 - 12 d_4 <= 0
 Rest4_link_lb_5: - x_i_0_j_5 - x_i_1_j_5 - x_i_2_j_5 - x_i_3_j_5
   - x_i_4_j_5 - x_i_6_j_5 - x_i_7_j_5 - x_i_8_j_5 - x_i_9_j_5 - x_i_10_j_5
   - x_i_11_j_5 - x_i_12_j_5 + d_5 <= 0
 Rest4_link_ub_5: x_i_0_j_5 + x_i_1_j_5 + x_i_2_j_5 + x_i_3_j_5 + x_i_4_j_5
   + x_i_6_j_5 + x_i_7_j_5 + x_i_8_j_5 + x_i_9_j_5 + x_i_10_j_5
   + x_i_11_j_5 + x_i_12_j_5 - 12 d_5 <= 0
 Rest5: x_i_0_j_6 + x_i_1_j_6 + x_i_2_j_6 + x_i_3_j_6 + x_i_4_j_6
   + x_i_5_j_6 + x_i_7_j_6 + x_i_8_j_6 + x_i_9_j_6 + x_i_10_j_6
   + x_i_11_j_6 + x_i_12_j_6 = 1
 Rest6: x_i_6_j_0 + x_i_6_j_1 + x_i_6_j_2 + x_i_6_j_3 + x_i_6_j_4
   + x_i_6_j_5 + x_i_6_j_7 + x_i_6_j_8 + x_i_6_j_9 + x_i_6_j_10
   + x_i_6_j_11 + x_i_6_j_12 = 1
 Rest7_j_7: x_i_0_j_7 + x_i_1_j_7 + x_i_2_j_7 + x_i_3_j_7 + x_i_4_j_7
   + x_i_5_j_7 + x_i_6_j_7 + x_i_8_j_7 + x_i_9_j_7 + x_i_10_j_7
   + x_i_11_j_7 + x_i_12_j_7 = 1
 Rest7_j_8: x_i_0_j_8 + x_i_1_j_8 + x_i_2_j_8 + x_i_3_j_8 + x_i_4_j_8
   + x_i_5_j_8 + x_i_6_j_8 + x_i_7_j_8 + x_i_9_j_8 + x_i_10_j_8
   + x_i_11_j_8 + x_i_12_j_8 = 1
 Rest7_j_9: x_i_0_j_9 + x_i_1_j_9 + x_i_2_j_9 + x_i_3_j_9 + x_i_4_j_9
   + x_i_5_j_9 + x_i_6_j_9 + x_i_7_j_9 + x_i_8_j_9 + x_i_10_j_9
   + x_i_11_j_9 + x_i_12_j_9 = 1
 Rest7_j_10: x_i_0_j_10 + x_i_1_j_10 + x_i_2_j_10 + x_i_3_j_10 + x_i_4_j_10
   + x_i_5_j_10 + x_i_6_j_10 + x_i_7_j_10 + x_i_8_j_10 + x_i_9_j_10
   + x_i_11_j_10 + x_i_12_j_10 = 1
 Rest7_j_11: x_i_0_j_11 + x_i_1_j_11 + x_i_2_j_11 + x_i_3_j_11 + x_i_4_j_11
   + x_i_5_j_11 + x_i_6_j_11 + x_i_7_j_11 + x_i_8_j_11 + x_i_9_j_11
   + x_i_10_j_11 + x_i_12_j_11 = 1
 Rest7_j_12: x_i_0_j_12 + x_i_1_j_12 + x_i_2_j_12 + x_i_3_j_12 + x_i_4_j_12
   + x_i_5_j_12 + x_i_6_j_12 + x_i_7_j_12 + x_i_8_j_12 + x_i_9_j_12
   + x_i_10_j_12 + x_i_11_j_12 = 1
 Rest8_j_7: x_i_7_j_0 + x_i_7_j_1 + x_i_7_j_2 + x_i_7_j_3 + x_i_7_j_4
   + x_i_7_j_5 + x_i_7_j_6 + x_i_7_j_8 + x_i_7_j_9 + x_i_7_j_10
   + x_i_7_j_11 + x_i_7_j_12 = 1
 Rest8_j_8: x_i_8_j_0 + x_i_8_j_1 + x_i_8_j_2 + x_i_8_j_3 + x_i_8_j_4
   + x_i_8_j_5 + x_i_8_j_6 + x_i_8_j_7 + x_i_8_j_9 + x_i_8_j_10
   + x_i_8_j_11 + x_i_8_j_12 = 1
 Rest8_j_9: x_i_9_j_0 + x_i_9_j_1 + x_i_9_j_2 + x_i_9_j_3 + x_i_9_j_4
   + x_i_9_j_5 + x_i_9_j_6 + x_i_9_j_7 + x_i_9_j_8 + x_i_9_j_10
   + x_i_9_j_11 + x_i_9_j_12 = 1
 Rest8_j_10: x_i_10_j_0 + x_i_10_j_1 + x_i_10_j_2 + x_i_10_j_3 + x_i_10_j_4
   + x_i_10_j_5 + x_i_10_j_6 + x_i_10_j_7 + x_i_10_j_8 + x_i_10_j_9
   + x_i_10_j_11 + x_i_10_j_12 = 1
 Rest8_j_11: x_i_11_j_0 + x_i_11_j_1 + x_i_11_j_2 + x_i_11_j_3 + x_i_11_j_4
   + x_i_11_j_5 + x_i_11_j_6 + x_i_11_j_7 + x_i_11_j_8 + x_i_11_j_9
   + x_i_11_j_10 + x_i_11_j_12 = 1
 Rest8_j_12: x_i_12_j_0 + x_i_12_j_1 + x_i_12_j_2 + x_i_12_j_3 + x_i_12_j_4
   + x_i_12_j_5 + x_i_12_j_6 + x_i_12_j_7 + x_i_12_j_8 + x_i_12_j_9
   + x_i_12_j_10 + x_i_12_j_11 = 1
 Rest9_i_7: - 819.0452933421661 x_i_7_j_0 - 240.3333652939915 x_i_7_j_1
   - 1178.99199686381 x_i_7_j_2 - 978.5033275397609 x_i_7_j_3
   - 773.8260181203929 x_i_7_j_4 - 385.7650925811608 x_i_7_j_5
   - 285.7996653516946 x_i_7_j_6 - 894.4593706875 x_i_7_j_8
   - 215.365361743168 x_i_7_j_9 - 1021.584470915553 x_i_7_j_10
   - 543.5503998740738 x_i_7_j_11 - 1197.971965281186 x_i_7_j_12
   - z_i_0_j_7 - z_i_1_j_7 - z_i_2_j_7 - z_i_3_j_7 - z_i_4_j_7 - z_i_5_j_7
   - z_i_6_j_7 + z_i_7_j_0 + z_i_7_j_1 + z_i_7_j_2 + z_i_7_j_3 + z_i_7_j_4
   + z_i_7_j_5 + z_i_7_j_6 + z_i_7_j_8 + z_i_7_j_9 + z_i_7_j_10
   + z_i_7_j_11 + z_i_7_j_12 - z_i_8_j_7 - z_i_9_j_7 - z_i_10_j_7
   - z_i_11_j_7 - z_i_12_j_7 = 0
 Rest9_i_8: - 56.30170654399055 x_i_8_j_0 - 679.9735114035899 x_i_8_j_1
   - 355.91039616735 x_i_8_j_2 - 349.8770362914289 x_i_8_j_3
   - 448.6507473097657 x_i_8_j_4 - 1095.02022883123 x_i_8_j_5
   - 1100.05053675388 x_i_8_j_6 - 894.4593706875 x_i_8_j_7
   - 739.6994260515552 x_i_8_j_9 - 210.3534917741146 x_i_8_j_10
   - 461.4773832322867 x_i_8_j_11 - 384.2974663880385 x_i_8_j_12
   - z_i_0_j_8 - z_i_1_j_8 - z_i_2_j_8 - z_i_3_j_8 - z_i_4_j_8 - z_i_5_j_8
   - z_i_6_j_8 - z_i_7_j_8 + z_i_8_j_0 + z_i_8_j_1 + z_i_8_j_2 + z_i_8_j_3
   + z_i_8_j_4 + z_i_8_j_5 + z_i_8_j_6 + z_i_8_j_7 + z_i_8_j_9 + z_i_8_j_10
   + z_i_8_j_11 + z_i_8_j_12 - z_i_9_j_8 - z_i_10_j_8 - z_i_11_j_8
   - z_i_12_j_8 = 0
 Rest9_i_9: - 685.6698127985989 x_i_9_j_0 - 61.48484966744982 x_i_9_j_1
   - 1009.235732144308 x_i_9_j_2 - 797.5021399063079 x_i_9_j_3
   - 582.5034653514008 x_i_9_j_4 - 367.3539676531684 x_i_9_j_5
   - 362.8700085684955 x_i_9_j_6 - 215.365361743168 x_i_9_j_7
   - 739.6994260515552 x_i_9_j_8 - 884.6844666874999 x_i_9_j_10
   - 352.4319069392164 x_i_9_j_11 - 1027.898776138061 x_i_9_j_12
   - z_i_0_j_9 - z_i_1_j_9 - z_i_2_j_9 - z_i_3_j_9 - z_i_4_j_9 - z_i_5_j_9
   - z_i_6_j_9 - z_i_7_j_9 - z_i_8_j_9 + z_i_9_j_0 + z_i_9_j_1 + z_i_9_j_2
   + z_i_9_j_3 + z_i_9_j_4 + z_i_9_j_5 + z_i_9_j_6 + z_i_9_j_7 + z_i_9_j_8
   + z_i_9_j_10 + z_i_9_j_11 + z_i_9_j_12 - z_i_10_j_9 - z_i_11_j_9
   - z_i_12_j_9 = 0
 Rest9_i_10: - 229.3081305125063 x_i_10_j_0 - 806.1886502931106 x_i_10_j_1
   - 157.4541348347591 x_i_10_j_2 - 156.4219346902687 x_i_10_j_3
   - 365.6562216127098 x_i_10_j_4 - 1191.165133422299 x_i_10_j_5
   - 1221.800024669672 x_i_10_j_6 - 1021.584470915553 x_i_10_j_7
   - 210.3534917741146 x_i_10_j_8 - 884.6844666874999 x_i_10_j_9
   - 522.5955369710393 x_i_10_j_11 - 181.974869574457 x_i_10_j_12
   - z_i_0_j_10 - z_i_1_j_10 - z_i_2_j_10 - z_i_3_j_10 - z_i_4_j_10
   - z_i_5_j_10 - z_i_6_j_10 - z_i_7_j_10 - z_i_8_j_10 - z_i_9_j_10
   + z_i_10_j_0 + z_i_10_j_1 + z_i_10_j_2 + z_i_10_j_3 + z_i_10_j_4
   + z_i_10_j_5 + z_i_10_j_6 + z_i_10_j_7 + z_i_10_j_8 + z_i_10_j_9
   + z_i_10_j_11 + z_i_10_j_12 - z_i_11_j_10 - z_i_12_j_10 = 0
 Rest9_i_11: - 405.5923410885671 x_i_11_j_0 - 306.8367773056999 x_i_11_j_1
   - 666.1812653831171 x_i_11_j_2 - 446.2342244274755 x_i_11_j_3
   - 231.1425798014413 x_i_11_j_4 - 668.6227612167768 x_i_11_j_5
   - 707.1994546282982 x_i_11_j_6 - 543.5503998740738 x_i_11_j_7
   - 461.4773832322867 x_i_11_j_8 - 352.4319069392164 x_i_11_j_9
   - 522.5955369710393 x_i_11_j_10 - 692.9352061875001 x_i_11_j_12
   - z_i_0_j_11 - z_i_1_j_11 - z_i_2_j_11 - z_i_3_j_11 - z_i_4_j_11
   - z_i_5_j_11 - z_i_6_j_11 - z_i_7_j_11 - z_i_8_j_11 - z_i_9_j_11
   - z_i_10_j_11 + z_i_11_j_0 + z_i_11_j_1 + z_i_11_j_2 + z_i_11_j_3
   + z_i_11_j_4 + z_i_11_j_5 + z_i_11_j_6 + z_i_11_j_7 + z_i_11_j_8
   + z_i_11_j_9 + z_i_11_j_10 + z_i_11_j_12 - z_i_12_j_11 = 0
 Rest9_i_12: - 409.9116135217445 x_i_12_j_0 - 974.4618752775319 x_i_12_j_1
   - 30.6928841063466 x_i_12_j_2 - 242.7335905917485 x_i_12_j_3
   - 469.745917025896 x_i_12_j_4 - 1345.729502814749 x_i_12_j_5
   - 1386.129037684764 x_i_12_j_6 - 1197.971965281186 x_i_12_j_7
   - 384.2974663880385 x_i_12_j_8 - 1027.898776138061 x_i_12_j_9
   - 181.974869574457 x_i_12_j_10 - 692.9352061875001 x_i_12_j_11
   - z_i_0_j_12 - z_i_1_j_12 - z_i_2_j_12 - z_i_3_j_12 - z_i_4_j_12
   - z_i_5_j_12 - z_i_6_j_12 - z_i_7_j_12 - z_i_8_j_12 - z_i_9_j_12
   - z_i_10_j_12 - z_i_11_j_12 + z_i_12_j_0 + z_i_12_j_1 + z_i_12_j_2
   + z_i_12_j_3 + z_i_12_j_4 + z_i_12_j_5 + z_i_12_j_6 + z_i_12_j_7
   + z_i_12_j_8 + z_i_12_j_9 + z_i_12_j_10 + z_i_12_j_11 = 0
 Rest10_d_1_i_0: - 626.3111973636819 x_i_1_j_0 + z_i_1_j_0 = 0
 Rest10_d_2_i_0: - 383.2747490016342 x_i_2_j_0 + z_i_2_j_0 = 0
 Rest10_d_3_i_0: - 359.6409345614645 x_i_3_j_0 + z_i_3_j_0 = 0
 Rest10_d_4_i_0: - 431.631470111809 x_i_4_j_0 + z_i_4_j_0 = 0
 Rest10_d_5_i_0: - 1039.578735008245 x_i_5_j_0 + z_i_5_j_0 = 0
 Rest10_d_6_i_0: - 1046.784342761388 x_i_6_j_0 + z_i_6_j_0 = 0
 Rest10_d_0_i_1: - 626.3111973636819 x_i_0_j_1 + z_i_0_j_1 = 0
 Rest10_d_2_i_1: - 955.7439290076408 x_i_2_j_1 + z_i_2_j_1 = 0
 Rest10_d_3_i_1: - 748.2798947572219 x_i_3_j_1 + z_i_3_j_1 = 0
 Rest10_d_4_i_1: - 537.9791840393933 x_i_4_j_1 + z_i_4_j_1 = 0
 Rest10_d_5_i_1: - 428.6531088380699 x_i_5_j_1 + z_i_5_j_1 = 0
 Rest10_d_6_i_1: - 420.7151691461711 x_i_6_j_1 + z_i_6_j_1 = 0
 Rest10_d_0_i_2: - 383.2747490016342 x_i_0_j_2 + z_i_0_j_2 = 0
 Rest10_d_1_i_2: - 955.7439290076408 x_i_1_j_2 + z_i_1_j_2 = 0
 Rest10_d_3_i_2: - 235.370634094699 x_i_3_j_2 + z_i_3_j_2 = 0
 Rest10_d_4_i_2: - 459.9983224430179 x_i_4_j_2 + z_i_4_j_2 = 0
 Rest10_d_5_i_2: - 1332.15080040771 x_i_5_j_2 + z_i_5_j_2 = 0
 Rest10_d_6_i_2: - 1369.99003206684 x_i_6_j_2 + z_i_6_j_2 = 0
 Rest10_d_0_i_3: - 359.6409345614645 x_i_0_j_3 + z_i_0_j_3 = 0
 Rest10_d_1_i_3: - 748.2798947572219 x_i_1_j_3 + z_i_1_j_3 = 0
 Rest10_d_2_i_3: - 235.370634094699 x_i_2_j_3 + z_i_2_j_3 = 0
 Rest10_d_4_i_3: - 227.6437771668983 x_i_4_j_3 + z_i_4_j_3 = 0
 Rest10_d_5_i_3: - 1107.19144338736 x_i_5_j_3 + z_i_5_j_3 = 0
 Rest10_d_6_i_3: - 1153.167115416718 x_i_6_j_3 + z_i_6_j_3 = 0
 Rest10_d_0_i_4: - 431.631470111809 x_i_0_j_4 + z_i_0_j_4 = 0
 Rest10_d_1_i_4: - 537.9791840393933 x_i_1_j_4 + z_i_1_j_4 = 0
 Rest10_d_2_i_4: - 459.9983224430179 x_i_2_j_4 + z_i_2_j_4 = 0
 Rest10_d_3_i_4: - 227.6437771668983 x_i_3_j_4 + z_i_3_j_4 = 0
 Rest10_d_5_i_4: - 879.5612021205787 x_i_5_j_4 + z_i_5_j_4 = 0
 Rest10_d_6_i_4: - 931.6879480966337 x_i_6_j_4 + z_i_6_j_4 = 0
 Rest10_d_0_i_5: - 1039.578735008245 x_i_0_j_5 + z_i_0_j_5 = 0
 Rest10_d_1_i_5: - 428.6531088380699 x_i_1_j_5 + z_i_1_j_5 = 0
 Rest10_d_2_i_5: - 1332.15080040771 x_i_2_j_5 + z_i_2_j_5 = 0
 Rest10_d_3_i_5: - 1107.19144338736 x_i_3_j_5 + z_i_3_j_5 = 0
 Rest10_d_4_i_5: - 879.5612021205787 x_i_4_j_5 + z_i_4_j_5 = 0
 Rest10_d_6_i_5: - 165.6263886336316 x_i_6_j_5 + z_i_6_j_5 = 0
 Rest10_d_0_i_6: - 1046.784342761388 x_i_0_j_6 + z_i_0_j_6 = 0
 Rest10_d_1_i_6: - 420.7151691461711 x_i_1_j_6 + z_i_1_j_6 = 0
 Rest10_d_2_i_6: - 1369.99003206684 x_i_2_j_6 + z_i_2_j_6 = 0
 Rest10_d_3_i_6: - 1153.167115416718 x_i_3_j_6 + z_i_3_j_6 = 0
 Rest10_d_4_i_6: - 931.6879480966337 x_i_4_j_6 + z_i_4_j_6 = 0
 Rest10_d_5_i_6: - 165.6263886336316 x_i_5_j_6 + z_i_5_j_6 = 0
 Rest10_d_0_i_7: - 819.0452933421661 x_i_0_j_7 + z_i_0_j_7 = 0
 Rest10_d_1_i_7: - 240.3333652939915 x_i_1_j_7 + z_i_1_j_7 = 0
 Rest10_d_2_i_7: - 1178.99199686381 x_i_2_j_7 + z_i_2_j_7 = 0
 Rest10_d_3_i_7: - 978.5033275397609 x_i_3_j_7 + z_i_3_j_7 = 0
 Rest10_d_4_i_7: - 773.8260181203929 x_i_4_j_7 + z_i_4_j_7 = 0
 Rest10_d_5_i_7: - 385.7650925811608 x_i_5_j_7 + z_i_5_j_7 = 0
 Rest10_d_6_i_7: - 285.7996653516946 x_i_6_j_7 + z_i_6_j_7 = 0
 Rest10_d_0_i_8: - 56.30170654399055 x_i_0_j_8 + z_i_0_j_8 = 0
 Rest10_d_1_i_8: - 679.9735114035899 x_i_1_j_8 + z_i_1_j_8 = 0
 Rest10_d_2_i_8: - 355.91039616735 x_i_2_j_8 + z_i_2_j_8 = 0
 Rest10_d_3_i_8: - 349.8770362914289 x_i_3_j_8 + z_i_3_j_8 = 0
 Rest10_d_4_i_8: - 448.6507473097657 x_i_4_j_8 + z_i_4_j_8 = 0
 Rest10_d_5_i_8: - 1095.02022883123 x_i_5_j_8 + z_i_5_j_8 = 0
 Rest10_d_6_i_8: - 1100.05053675388 x_i_6_j_8 + z_i_6_j_8 = 0
 Rest10_d_0_i_9: - 685.6698127985989 x_i_0_j_9 + z_i_0_j_9 = 0
 Rest10_d_1_i_9: - 61.48484966744982 x_i_1_j_9 + z_i_1_j_9 = 0
 Rest10_d_2_i_9: - 1009.235732144308 x_i_2_j_9 + z_i_2_j_9 = 0
 Rest10_d_3_i_9: - 797.5021399063079 x_i_3_j_9 + z_i_3_j_9 = 0
 Rest10_d_4_i_9: - 582.5034653514008 x_i_4_j_9 + z_i_4_j_9 = 0
 Rest10_d_5_i_9: - 367.3539676531684 x_i_5_j_9 + z_i_5_j_9 = 0
 Rest10_d_6_i_9: - 362.8700085684955 x_i_6_j_9 + z_i_6_j_9 = 0
 Rest10_d_0_i_10: - 229.3081305125063 x_i_0_j_10 + z_i_0_j_10 = 0
 Rest10_d_1_i_10: - 806.1886502931106 x_i_1_j_10 + z_i_1_j_10 = 0
 Rest10_d_2_i_10: - 157.4541348347591 x_i_2_j_10 + z_i_2_j_10 = 0
 Rest10_d_3_i_10: - 156.4219346902687 x_i_3_j_10 + z_i_3_j_10 = 0
 Rest10_d_4_i_10: - 365.6562216127098 x_i_4_j_10 + z_i_4_j_10 = 0
 Rest10_d_5_i_10: - 1191.165133422299 x_i_5_j_10 + z_i_5_j_10 = 0
 Rest10_d_6_i_10: - 1221.800024669672 x_i_6_j_10 + z_i_6_j_10 = 0
 Rest10_d_0_i_11: - 405.5923410885671 x_i_0_j_11 + z_i_0_j_11 = 0
 Rest10_d_1_i_11: - 306.8367773056999 x_i_1_j_11 + z_i_1_j_11 = 0
 Rest10_d_2_i_11: - 666.1812653831171 x_i_2_j_11 + z_i_2_j_11 = 0
 Rest10_d_3_i_11: - 446.2342244274755 x_i_3_j_11 + z_i_3_j_11 = 0
 Rest10_d_4_i_11: - 231.1425798014413 x_i_4_j_11 + z_i_4_j_11 = 0
 Rest10_d_5_i_11: - 668.6227612167768 x_i_5_j_11 + z_i_5_j_11 = 0
 Rest10_d_6_i_11: - 707.1994546282982 x_i_6_j_11 + z_i_6_j_11 = 0
 Rest10_d_0_i_12: - 409.9116135217445 x_i_0_j_12 + z_i_0_j_12 = 0
 Rest10_d_1_i_12: - 974.4618752775319 x_i_1_j_12 + z_i_1_j_12 = 0
 Rest10_d_2_i_12: - 30.6928841063466 x_i_2_j_12 + z_i_2_j_12 = 0
 Rest10_d_3_i_12: - 242.7335905917485 x_i_3_j_12 + z_i_3_j_12 = 0
 Rest10_d_4_i_12: - 469.745917025896 x_i_4_j_12 + z_i_4_j_12 = 0
 Rest10_d_5_i_12: - 1345.729502814749 x_i_5_j_12 + z_i_5_j_12 = 0
 Rest10_d_6_i_12: - 1386.129037684764 x_i_6_j_12 + z_i_6_j_12 = 0
 Rest11_i_0_j_7: - 1559.666634706009 x_i_0_j_7 + z_i_0_j_7 <= 0
 Rest11_i_0_j_8: - 1743.698293456009 x_i_0_j_8 + z_i_0_j_8 <= 0
 Rest11_i_0_j_9: - 1738.51515033255 x_i_0_j_9 + z_i_0_j_9 <= 0
 Rest11_i_0_j_10: - 1643.578065309731 x_i_0_j_10 + z_i_0_j_10 <= 0
 Rest11_i_0_j_11: - 1568.857420198559 x_i_0_j_11 + z_i_0_j_11 <= 0
 Rest11_i_0_j_12: - 1769.307115893653 x_i_0_j_12 + z_i_0_j_12 <= 0
 Rest11_i_1_j_7: - 1559.666634706009 x_i_1_j_7 + z_i_1_j_7 <= 0
 Rest11_i_1_j_8: - 1743.698293456009 x_i_1_j_8 + z_i_1_j_8 <= 0
 Rest11_i_1_j_9: - 1738.51515033255 x_i_1_j_9 + z_i_1_j_9 <= 0
 Rest11_i_1_j_10: - 1643.578065309731 x_i_1_j_10 + z_i_1_j_10 <= 0
 Rest11_i_1_j_11: - 1568.857420198559 x_i_1_j_11 + z_i_1_j_11 <= 0
 Rest11_i_1_j_12: - 1769.307115893653 x_i_1_j_12 + z_i_1_j_12 <= 0
 Rest11_i_2_j_7: - 1559.666634706009 x_i_2_j_7 + z_i_2_j_7 <= 0
 Rest11_i_2_j_8: - 1743.698293456009 x_i_2_j_8 + z_i_2_j_8 <= 0
 Rest11_i_2_j_9: - 1738.51515033255 x_i_2_j_9 + z_i_2_j_9 <= 0
 Rest11_i_2_j_10: - 1643.578065309731 x_i_2_j_10 + z_i_2_j_10 <= 0
 Rest11_i_2_j_11: - 1568.857420198559 x_i_2_j_11 + z_i_2_j_11 <= 0
 Rest11_i_2_j_12: - 1769.307115893653 x_i_2_j_12 + z_i_2_j_12 <= 0
 Rest11_i_3_j_7: - 1559.666634706009 x_i_3_j_7 + z_i_3_j_7 <= 0
 Rest11_i_3_j_8: - 1743.698293456009 x_i_3_j_8 + z_i_3_j_8 <= 0
 Rest11_i_3_j_9: - 1738.51515033255 x_i_3_j_9 + z_i_3_j_9 <= 0
 Rest11_i_3_j_10: - 1643.578065309731 x_i_3_j_10 + z_i_3_j_10 <= 0
 Rest11_i_3_j_11: - 1568.857420198559 x_i_3_j_11 + z_i_3_j_11 <= 0
 Rest11_i_3_j_12: - 1769.307115893653 x_i_3_j_12 + z_i_3_j_12 <= 0
 Rest11_i_4_j_7: - 1559.666634706009 x_i_4_j_7 + z_i_4_j_7 <= 0
 Rest11_i_4_j_8: - 1743.698293456009 x_i_4_j_8 + z_i_4_j_8 <= 0
 Rest11_i_4_j_9: - 1738.51515033255 x_i_4_j_9 + z_i_4_j_9 <= 0
 Rest11_i_4_j_10: - 1643.578065309731 x_i_4_j_10 + z_i_4_j_10 <= 0
 Rest11_i_4_j_11: - 1568.857420198559 x_i_4_j_11 + z_i_4_j_11 <= 0
 Rest11_i_4_j_12: - 1769.307115893653 x_i_4_j_12 + z_i_4_j_12 <= 0
 Rest11_i_5_j_7: - 1559.666634706009 x_i_5_j_7 + z_i_5_j_7 <= 0
 Rest11_i_5_j_8: - 1743.698293456009 x_i_5_j_8 + z_i_5_j_8 <= 0
 Rest11_i_5_j_9: - 1738.51515033255 x_i_5_j_9 + z_i_5_j_9 <= 0
 Rest11_i_5_j_10: - 1643.578065309731 x_i_5_j_10 + z_i_5_j_10 <= 0
 Rest11_i_5_j_11: - 1568.857420198559 x_i_5_j_11 + z_i_5_j_11 <= 0
 Rest11_i_5_j_12: - 1769.307115893653 x_i_5_j_12 + z_i_5_j_12 <= 0
 Rest11_i_6_j_7: - 1559.666634706009 x_i_6_j_7 + z_i_6_j_7 <= 0
 Rest11_i_6_j_8: - 1743.698293456009 x_i_6_j_8 + z_i_6_j_8 <= 0
 Rest11_i_6_j_9: - 1738.51515033255 x_i_6_j_9 + z_i_6_j_9 <= 0
 Rest11_i_6_j_10: - 1643.578065309731 x_i_6_j_10 + z_i_6_j_10 <= 0
 Rest11_i_6_j_11: - 1568.857420198559 x_i_6_j_11 + z_i_6_j_11 <= 0
 Rest11_i_6_j_12: - 1769.307115893653 x_i_6_j_12 + z_i_6_j_12 <= 0
 Rest11_i_7_j_8: - 1743.698293456009 x_i_7_j_8 + z_i_7_j_8 <= 0
 Rest11_i_7_j_9: - 1738.51515033255 x_i_7_j_9 + z_i_7_j_9 <= 0
 Rest11_i_7_j_10: - 1643.578065309731 x_i_7_j_10 + z_i_7_j_10 <= 0
 Rest11_i_7_j_11: - 1568.857420198559 x_i_7_j_11 + z_i_7_j_11 <= 0
 Rest11_i_7_j_12: - 1769.307115893653 x_i_7_j_12 + z_i_7_j_12 <= 0
 Rest11_i_8_j_7: - 1559.666634706009 x_i_8_j_7 + z_i_8_j_7 <= 0
 Rest11_i_8_j_9: - 1738.51515033255 x_i_8_j_9 + z_i_8_j_9 <= 0
 Rest11_i_8_j_10: - 1643.578065309731 x_i_8_j_10 + z_i_8_j_10 <= 0
 Rest11_i_8_j_11: - 1568.857420198559 x_i_8_j_11 + z_i_8_j_11 <= 0
 Rest11_i_8_j_12: - 1769.307115893653 x_i_8_j_12 + z_i_8_j_12 <= 0
 Rest11_i_9_j_7: - 1559.666634706009 x_i_9_j_7 + z_i_9_j_7 <= 0
 Rest11_i_9_j_8: - 1743.698293456009 x_i_9_j_8 + z_i_9_j_8 <= 0
 Rest11_i_9_j_10: - 1643.578065309731 x_i_9_j_10 + z_i_9_j_10 <= 0
 Rest11_i_9_j_11: - 1568.857420198559 x_i_9_j_11 + z_i_9_j_11 <= 0
 Rest11_i_9_j_12: - 1769.307115893653 x_i_9_j_12 + z_i_9_j_12 <= 0
 Rest11_i_10_j_7: - 1559.666634706009 x_i_10_j_7 + z_i_10_j_7 <= 0
 Rest11_i_10_j_8: - 1743.698293456009 x_i_10_j_8 + z_i_10_j_8 <= 0
 Rest11_i_10_j_9: - 1738.51515033255 x_i_10_j_9 + z_i_10_j_9 <= 0
 Rest11_i_10_j_11: - 1568.857420198559 x_i_10_j_11 + z_i_10_j_11 <= 0
 Rest11_i_10_j_12: - 1769.307115893653 x_i_10_j_12 + z_i_10_j_12 <= 0
 Rest11_i_11_j_7: - 1559.666634706009 x_i_11_j_7 + z_i_11_j_7 <= 0
 Rest11_i_11_j_8: - 1743.698293456009 x_i_11_j_8 + z_i_11_j_8 <= 0
 Rest11_i_11_j_9: - 1738.51515033255 x_i_11_j_9 + z_i_11_j_9 <= 0
 Rest11_i_11_j_10: - 1643.578065309731 x_i_11_j_10 + z_i_11_j_10 <= 0
 Rest11_i_11_j_12: - 1769.307115893653 x_i_11_j_12 + z_i_11_j_12 <= 0
 Rest11_i_12_j_7: - 1559.666634706009 x_i_12_j_7 + z_i_12_j_7 <= 0
 Rest11_i_12_j_8: - 1743.698293456009 x_i_12_j_8 + z_i_12_j_8 <= 0
 Rest11_i_12_j_9: - 1738.51515033255 x_i_12_j_9 + z_i_12_j_9 <= 0
 Rest11_i_12_j_10: - 1643.578065309731 x_i_12_j_10 + z_i_12_j_10 <= 0
 Rest11_i_12_j_11: - 1568.857420198559 x_i_12_j_11 + z_i_12_j_11 <= 0
 Rest12_i_0_d_1: - 1800 x_i_0_j_1 + z_i_0_j_1 <= 0
 Rest12_i_0_d_2: - 1800 x_i_0_j_2 + z_i_0_j_2 <= 0
 Rest12_i_0_d_3: - 1800 x_i_0_j_3 + z_i_0_j_3 <= 0
 Rest12_i_0_d_4: - 1800 x_i_0_j_4 + z_i_0_j_4 <= 0
 Rest12_i_0_d_5: - 1800 x_i_0_j_5 + z_i_0_j_5 <= 0
 Rest12_i_0_d_6: - 1800 x_i_0_j_6 + z_i_0_j_6 <= 0
 Rest12_i_1_d_0: - 1800 x_i_1_j_0 + z_i_1_j_0 <= 0
 Rest12_i_1_d_2: - 1800 x_i_1_j_2 + z_i_1_j_2 <= 0
 Rest12_i_1_d_3: - 1800 x_i_1_j_3 + z_i_1_j_3 <= 0
 Rest12_i_1_d_4: - 1800 x_i_1_j_4 + z_i_1_j_4 <= 0
 Rest12_i_1_d_5: - 1800 x_i_1_j_5 + z_i_1_j_5 <= 0
 Rest12_i_1_d_6: - 1800 x_i_1_j_6 + z_i_1_j_6 <= 0
 Rest12_i_2_d_0: - 1800 x_i_2_j_0 + z_i_2_j_0 <= 0
 Rest12_i_2_d_1: - 1800 x_i_2_j_1 + z_i_2_j_1 <= 0
 Rest12_i_2_d_3: - 1800 x_i_2_j_3 + z_i_2_j_3 <= 0
 Rest12_i_2_d_4: - 1800 x_i_2_j_4 + z_i_2_j_4 <= 0
 Rest12_i_2_d_5: - 1800 x_i_2_j_5 + z_i_2_j_5 <= 0
 Rest12_i_2_d_6: - 1800 x_i_2_j_6 + z_i_2_j_6 <= 0
 Rest12_i_3_d_0: - 1800 x_i_3_j_0 + z_i_3_j_0 <= 0
 Rest12_i_3_d_1: - 1800 x_i_3_j_1 + z_i_3_j_1 <= 0
 Rest12_i_3_d_2: - 1800 x_i_3_j_2 + z_i_3_j_2 <= 0
 Rest12_i_3_d_4: - 1800 x_i_3_j_4 + z_i_3_j_4 <= 0
 Rest12_i_3_d_5: - 1800 x_i_3_j_5 + z_i_3_j_5 <= 0
 Rest12_i_3_d_6: - 1800 x_i_3_j_6 + z_i_3_j_6 <= 0
 Rest12_i_4_d_0: - 1800 x_i_4_j_0 + z_i_4_j_0 <= 0
 Rest12_i_4_d_1: - 1800 x_i_4_j_1 + z_i_4_j_1 <= 0
 Rest12_i_4_d_2: - 1800 x_i_4_j_2 + z_i_4_j_2 <= 0
 Rest12_i_4_d_3: - 1800 x_i_4_j_3 + z_i_4_j_3 <= 0
 Rest12_i_4_d_5: - 1800 x_i_4_j_5 + z_i_4_j_5 <= 0
 Rest12_i_4_d_6: - 1800 x_i_4_j_6 + z_i_4_j_6 <= 0
 Rest12_i_5_d_0: - 1800 x_i_5_j_0 + z_i_5_j_0 <= 0
 Rest12_i_5_d_1: - 1800 x_i_5_j_1 + z_i_5_j_1 <= 0
 Rest12_i_5_d_2: - 1800 x_i_5_j_2 + z_i_5_j_2 <= 0
 Rest12_i_5_d_3: - 1800 x_i_5_j_3 + z_i_5_j_3 <= 0
 Rest12_i_5_d_4: - 1800 x_i_5_j_4 + z_i_5_j_4 <= 0
 Rest12_i_5_d_6: - 1800 x_i_5_j_6 + z_i_5_j_6 <= 0
 Rest12_i_6_d_0: - 1800 x_i_6_j_0 + z_i_6_j_0 <= 0
 Rest12_i_6_d_1: - 1800 x_i_6_j_1 + z_i_6_j_1 <= 0
 Rest12_i_6_d_2: - 1800 x_i_6_j_2 + z_i_6_j_2 <= 0
 Rest12_i_6_d_3: - 1800 x_i_6_j_3 + z_i_6_j_3 <= 0
 Rest12_i_6_d_4: - 1800 x_i_6_j_4 + z_i_6_j_4 <= 0
 Rest12_i_6_d_5: - 1800 x_i_6_j_5 + z_i_6_j_5 <= 0
 Rest12_i_7_d_0: - 1800 x_i_7_j_0 + z_i_7_j_0 <= 0
 Rest12_i_7_d_1: - 1800 x_i_7_j_1 + z_i_7_j_1 <= 0
 Rest12_i_7_d_2: - 1800 x_i_7_j_2 + z_i_7_j_2 <= 0
 Rest12_i_7_d_3: - 1800 x_i_7_j_3 + z_i_7_j_3 <= 0
 Rest12_i_7_d_4: - 1800 x_i_7_j_4 + z_i_7_j_4 <= 0
 Rest12_i_7_d_5: - 1800 x_i_7_j_5 + z_i_7_j_5 <= 0
 Rest12_i_7_d_6: - 1800 x_i_7_j_6 + z_i_7_j_6 <= 0
 Rest12_i_8_d_0: - 1800 x_i_8_j_0 + z_i_8_j_0 <= 0
 Rest12_i_8_d_1: - 1800 x_i_8_j_1 + z_i_8_j_1 <= 0
 Rest12_i_8_d_2: - 1800 x_i_8_j_2 + z_i_8_j_2 <= 0
 Rest12_i_8_d_3: - 1800 x_i_8_j_3 + z_i_8_j_3 <= 0
 Rest12_i_8_d_4: - 1800 x_i_8_j_4 + z_i_8_j_4 <= 0
 Rest12_i_8_d_5: - 1800 x_i_8_j_5 + z_i_8_j_5 <= 0
 Rest12_i_8_d_6: - 1800 x_i_8_j_6 + z_i_8_j_6 <= 0
 Rest12_i_9_d_0: - 1800 x_i_9_j_0 + z_i_9_j_0 <= 0
 Rest12_i_9_d_1: - 1800 x_i_9_j_1 + z_i_9_j_1 <= 0
 Rest12_i_9_d_2: - 1800 x_i_9_j_2 + z_i_9_j_2 <= 0
 Rest12_i_9_d_3: - 1800 x_i_9_j_3 + z_i_9_j_3 <= 0
 Rest12_i_9_d_4: - 1800 x_i_9_j_4 + z_i_9_j_4 <= 0
 Rest12_i_9_d_5: - 1800 x_i_9_j_5 + z_i_9_j_5 <= 0
 Rest12_i_9_d_6: - 1800 x_i_9_j_6 + z_i_9_j_6 <= 0
 Rest12_i_10_d_0: - 1800 x_i_10_j_0 + z_i_10_j_0 <= 0
 Rest12_i_10_d_1: - 1800 x_i_10_j_1 + z_i_10_j_1 <= 0
 Rest12_i_10_d_2: - 1800 x_i_10_j_2 + z_i_10_j_2 <= 0
 Rest12_i_10_d_3: - 1800 x_i_10_j_3 + z_i_10_j_3 <= 0
 Rest12_i_10_d_4: - 1800 x_i_10_j_4 + z_i_10_j_4 <= 0
 Rest12_i_10_d_5: - 1800 x_i_10_j_5 + z_i_10_j_5 <= 0
 Rest12_i_10_d_6: - 1800 x_i_10_j_6 + z_i_10_j_6 <= 0
 Rest12_i_11_d_0: - 1800 x_i_11_j_0 + z_i_11_j_0 <= 0
 Rest12_i_11_d_1: - 1800 x_i_11_j_1 + z_i_11_j_1 <= 0
 Rest12_i_11_d_2: - 1800 x_i_11_j_2 + z_i_11_j_2 <= 0
 Rest12_i_11_d_3: - 1800 x_i_11_j_3 + z_i_11_j_3 <= 0
 Rest12_i_11_d_4: - 1800 x_i_11_j_4 + z_i_11_j_4 <= 0
 Rest12_i_11_d_5: - 1800 x_i_11_j_5 + z_i_11_j_5 <= 0
 Rest12_i_11_d_6: - 1800 x_i_11_j_6 + z_i_11_j_6 <= 0
 Rest12_i_12_d_0: - 1800 x_i_12_j_0 + z_i_12_j_0 <= 0
 Rest12_i_12_d_1: - 1800 x_i_12_j_1 + z_i_12_j_1 <= 0
 Rest12_i_12_d_2: - 1800 x_i_12_j_2 + z_i_12_j_2 <= 0
 Rest12_i_12_d_3: - 1800 x_i_12_j_3 + z_i_12_j_3 <= 0
 Rest12_i_12_d_4: - 1800 x_i_12_j_4 + z_i_12_j_4 <= 0
 Rest12_i_12_d_5: - 1800 x_i_12_j_5 + z_i_12_j_5 <= 0
 Rest12_i_12_d_6: - 1800 x_i_12_j_6 + z_i_12_j_6 <= 0
 Rest13_i_7_j_0: - 1059.378658636158 x_i_7_j_0 + z_i_7_j_0 >= 0
 Rest13_i_7_j_1: - 480.666730587983 x_i_7_j_1 + z_i_7_j_1 >= 0
 Rest13_i_7_j_2: - 1419.325362157802 x_i_7_j_2 + z_i_7_j_2 >= 0
 Rest13_i_7_j_3: - 1218.836692833752 x_i_7_j_3 + z_i_7_j_3 >= 0
 Rest13_i_7_j_4: - 1014.159383414384 x_i_7_j_4 + z_i_7_j_4 >= 0
 Rest13_i_7_j_5: - 626.0984578751523 x_i_7_j_5 + z_i_7_j_5 >= 0
 Rest13_i_7_j_6: - 526.1330306456861 x_i_7_j_6 + z_i_7_j_6 >= 0
 Rest13_i_7_j_8: - 1134.792735981491 x_i_7_j_8 + z_i_7_j_8 >= 0
 Rest13_i_7_j_9: - 455.6987270371595 x_i_7_j_9 + z_i_7_j_9 >= 0
 Rest13_i_7_j_10: - 1261.917836209544 x_i_7_j_10 + z_i_7_j_10 >= 0
 Rest13_i_7_j_11: - 783.8837651680653 x_i_7_j_11 + z_i_7_j_11 >= 0
 Rest13_i_7_j_12: - 1438.305330575177 x_i_7_j_12 + z_i_7_j_12 >= 0
 Rest13_i_8_j_0: - 112.6034130879811 x_i_8_j_0 + z_i_8_j_0 >= 0
 Rest13_i_8_j_1: - 736.2752179475805 x_i_8_j_1 + z_i_8_j_1 >= 0
 Rest13_i_8_j_2: - 412.2121027113405 x_i_8_j_2 + z_i_8_j_2 >= 0
 Rest13_i_8_j_3: - 406.1787428354195 x_i_8_j_3 + z_i_8_j_3 >= 0
 Rest13_i_8_j_4: - 504.9524538537563 x_i_8_j_4 + z_i_8_j_4 >= 0
 Rest13_i_8_j_5: - 1151.321935375221 x_i_8_j_5 + z_i_8_j_5 >= 0
 Rest13_i_8_j_6: - 1156.352243297871 x_i_8_j_6 + z_i_8_j_6 >= 0
 Rest13_i_8_j_7: - 950.7610772314906 x_i_8_j_7 + z_i_8_j_7 >= 0
 Rest13_i_8_j_9: - 796.0011325955458 x_i_8_j_9 + z_i_8_j_9 >= 0
 Rest13_i_8_j_10: - 266.6551983181051 x_i_8_j_10 + z_i_8_j_10 >= 0
 Rest13_i_8_j_11: - 517.7790897762773 x_i_8_j_11 + z_i_8_j_11 >= 0
 Rest13_i_8_j_12: - 440.5991729320291 x_i_8_j_12 + z_i_8_j_12 >= 0
 Rest13_i_9_j_0: - 747.1546624660486 x_i_9_j_0 + z_i_9_j_0 >= 0
 Rest13_i_9_j_1: - 122.9696993348996 x_i_9_j_1 + z_i_9_j_1 >= 0
 Rest13_i_9_j_2: - 1070.720581811758 x_i_9_j_2 + z_i_9_j_2 >= 0
 Rest13_i_9_j_3: - 858.9869895737577 x_i_9_j_3 + z_i_9_j_3 >= 0
 Rest13_i_9_j_4: - 643.9883150188506 x_i_9_j_4 + z_i_9_j_4 >= 0
 Rest13_i_9_j_5: - 428.8388173206181 x_i_9_j_5 + z_i_9_j_5 >= 0
 Rest13_i_9_j_6: - 424.3548582359453 x_i_9_j_6 + z_i_9_j_6 >= 0
 Rest13_i_9_j_7: - 276.8502114106178 x_i_9_j_7 + z_i_9_j_7 >= 0
 Rest13_i_9_j_8: - 801.184275719005 x_i_9_j_8 + z_i_9_j_8 >= 0
 Rest13_i_9_j_10: - 946.1693163549497 x_i_9_j_10 + z_i_9_j_10 >= 0
 Rest13_i_9_j_11: - 413.9167566066662 x_i_9_j_11 + z_i_9_j_11 >= 0
 Rest13_i_9_j_12: - 1089.383625805511 x_i_9_j_12 + z_i_9_j_12 >= 0
 Rest13_i_10_j_0: - 385.730065202775 x_i_10_j_0 + z_i_10_j_0 >= 0
 Rest13_i_10_j_1: - 962.6105849833793 x_i_10_j_1 + z_i_10_j_1 >= 0
 Rest13_i_10_j_2: - 313.8760695250279 x_i_10_j_2 + z_i_10_j_2 >= 0
 Rest13_i_10_j_3: - 312.8438693805375 x_i_10_j_3 + z_i_10_j_3 >= 0
 Rest13_i_10_j_4: - 522.0781563029785 x_i_10_j_4 + z_i_10_j_4 >= 0
 Rest13_i_10_j_5: - 1347.587068112568 x_i_10_j_5 + z_i_10_j_5 >= 0
 Rest13_i_10_j_6: - 1378.221959359941 x_i_10_j_6 + z_i_10_j_6 >= 0
 Rest13_i_10_j_7: - 1178.006405605822 x_i_10_j_7 + z_i_10_j_7 >= 0
 Rest13_i_10_j_8: - 366.7754264643833 x_i_10_j_8 + z_i_10_j_8 >= 0
 Rest13_i_10_j_9: - 1041.106401377769 x_i_10_j_9 + z_i_10_j_9 >= 0
 Rest13_i_10_j_11: - 679.017471661308 x_i_10_j_11 + z_i_10_j_11 >= 0
 Rest13_i_10_j_12: - 338.3968042647257 x_i_10_j_12 + z_i_10_j_12 >= 0
 Rest13_i_11_j_0: - 636.7349208900084 x_i_11_j_0 + z_i_11_j_0 >= 0
 Rest13_i_11_j_1: - 537.9793571071411 x_i_11_j_1 + z_i_11_j_1 >= 0
 Rest13_i_11_j_2: - 897.3238451845584 x_i_11_j_2 + z_i_11_j_2 >= 0
 Rest13_i_11_j_3: - 677.3768042289169 x_i_11_j_3 + z_i_11_j_3 >= 0
 Rest13_i_11_j_4: - 462.2851596028826 x_i_11_j_4 + z_i_11_j_4 >= 0
 Rest13_i_11_j_5: - 899.7653410182181 x_i_11_j_5 + z_i_11_j_5 >= 0
 Rest13_i_11_j_6: - 938.3420344297394 x_i_11_j_6 + z_i_11_j_6 >= 0
 Rest13_i_11_j_7: - 774.6929796755151 x_i_11_j_7 + z_i_11_j_7 >= 0
 Rest13_i_11_j_8: - 692.619963033728 x_i_11_j_8 + z_i_11_j_8 >= 0
 Rest13_i_11_j_9: - 583.5744867406577 x_i_11_j_9 + z_i_11_j_9 >= 0
 Rest13_i_11_j_10: - 753.7381167724807 x_i_11_j_10 + z_i_11_j_10 >= 0
 Rest13_i_11_j_12: - 924.0777859889413 x_i_11_j_12 + z_i_11_j_12 >= 0
 Rest13_i_12_j_0: - 440.6044976280911 x_i_12_j_0 + z_i_12_j_0 >= 0
 Rest13_i_12_j_1: - 1005.154759383879 x_i_12_j_1 + z_i_12_j_1 >= 0
 Rest13_i_12_j_2: - 61.38576821269319 x_i_12_j_2 + z_i_12_j_2 >= 0
 Rest13_i_12_j_3: - 273.426474698095 x_i_12_j_3 + z_i_12_j_3 >= 0
 Rest13_i_12_j_4: - 500.4388011322426 x_i_12_j_4 + z_i_12_j_4 >= 0
 Rest13_i_12_j_5: - 1376.422386921096 x_i_12_j_5 + z_i_12_j_5 >= 0
 Rest13_i_12_j_6: - 1416.821921791111 x_i_12_j_6 + z_i_12_j_6 >= 0
 Rest13_i_12_j_7: - 1228.664849387532 x_i_12_j_7 + z_i_12_j_7 >= 0
 Rest13_i_12_j_8: - 414.9903504943851 x_i_12_j_8 + z_i_12_j_8 >= 0
 Rest13_i_12_j_9: - 1058.591660244408 x_i_12_j_9 + z_i_12_j_9 >= 0
 Rest13_i_12_j_10: - 212.6677536808036 x_i_12_j_10 + z_i_12_j_10 >= 0
 Rest13_i_12_j_11: - 723.6280902938466 x_i_12_j_11 + z_i_12_j_11 >= 0
 Rest14_i_7: x_i_7_j_8 + x_i_8_j_7 = 1
 Rest14_i_9: x_i_9_j_10 + x_i_10_j_9 = 1
 Rest14_i_11: x_i_11_j_12 + x_i_12_j_11 = 1
 Rest17: - vars_Dmin + d_0 + d_1 + d_2 + d_3 + d_4 + d_5 <= 0
Bounds
 vars_Dmin <= 6
Binaries
 x_i_0_j_0 x_i_0_j_1 x_i_0_j_2 x_i_0_j_3 x_i_0_j_4 x_i_0_j_5 x_i_0_j_6
 x_i_0_j_7 x_i_0_j_8 x_i_0_j_9 x_i_0_j_10 x_i_0_j_11 x_i_0_j_12 x_i_1_j_0
 x_i_1_j_1 x_i_1_j_2 x_i_1_j_3 x_i_1_j_4 x_i_1_j_5 x_i_1_j_6 x_i_1_j_7
 x_i_1_j_8 x_i_1_j_9 x_i_1_j_10 x_i_1_j_11 x_i_1_j_12 x_i_2_j_0 x_i_2_j_1
 x_i_2_j_2 x_i_2_j_3 x_i_2_j_4 x_i_2_j_5 x_i_2_j_6 x_i_2_j_7 x_i_2_j_8
 x_i_2_j_9 x_i_2_j_10 x_i_2_j_11 x_i_2_j_12 x_i_3_j_0 x_i_3_j_1 x_i_3_j_2
 x_i_3_j_3 x_i_3_j_4 x_i_3_j_5 x_i_3_j_6 x_i_3_j_7 x_i_3_j_8 x_i_3_j_9
 x_i_3_j_10 x_i_3_j_11 x_i_3_j_12 x_i_4_j_0 x_i_4_j_1 x_i_4_j_2 x_i_4_j_3
 x_i_4_j_4 x_i_4_j_5 x_i_4_j_6 x_i_4_j_7 x_i_4_j_8 x_i_4_j_9 x_i_4_j_10
 x_i_4_j_11 x_i_4_j_12 x_i_5_j_0 x_i_5_j_1 x_i_5_j_2 x_i_5_j_3 x_i_5_j_4
 x_i_5_j_5 x_i_5_j_6 x_i_5_j_7 x_i_5_j_8 x_i_5_j_9 x_i_5_j_10 x_i_5_j_11
 x_i_5_j_12 x_i_6_j_0 x_i_6_j_1 x_i_6_j_2 x_i_6_j_3 x_i_6_j_4 x_i_6_j_5
 x_i_6_j_6 x_i_6_j_7 x_i_6_j_8 x_i_6_j_9 x_i_6_j_10 x_i_6_j_11 x_i_6_j_12
 x_i_7_j_0 x_i_7_j_1 x_i_7_j_2 x_i_7_j_3 x_i_7_j_4 x_i_7_j_5 x_i_7_j_6
 x_i_7_j_7 x_i_7_j_8 x_i_7_j_9 x_i_7_j_10 x_i_7_j_11 x_i_7_j_12 x_i_8_j_0
 x_i_8_j_1 x_i_8_j_2 x_i_8_j_3 x_i_8_j_4 x_i_8_j_5 x_i_8_j_6 x_i_8_j_7
 x_i_8_j_8 x_i_8_j_9 x_i_8_j_10 x_i_8_j_11 x_i_8_j_12 x_i_9_j_0 x_i_9_j_1
 x_i_9_j_2 x_i_9_j_3 x_i_9_j_4 x_i_9_j_5 x_i_9_j_6 x_i_9_j_7 x_i_9_j_8
 x_i_9_j_9 x_i_9_j_10 x_i_9_j_11 x_i_9_j_12 x_i_10_j_0 x_i_10_j_1
 x_i_10_j_2 x_i_10_j_3 x_i_10_j_4 x_i_10_j_5 x_i_10_j_6 x_i_10_j_7
 x_i_10_j_8 x_i_10_j_9 x_i_10_j_10 x_i_10_j_11 x_i_10_j_12 x_i_11_j_0
 x_i_11_j_1 x_i_11_j_2 x_i_11_j_3 x_i_11_j_4 x_i_11_j_5 x_i_11_j_6
 x_i_11_j_7 x_i_11_j_8 x_i_11_j_9 x_i_11_j_10 x_i_11_j_11 x_i_11_j_12
 x_i_12_j_0 x_i_12_j_1 x_i_12_j_2 x_i_12_j_3 x_i_12_j_4 x_i_12_j_5
 x_i_12_j_6 x_i_12_j_7 x_i_12_j_8 x_i_12_j_9 x_i_12_j_10 x_i_12_j_11
 x_i_12_j_12 d_0 d_1 d_2 d_3 d_4 d_5
Generals
 vars_Dmin
End
